 vasp.6.2.1 16May21 (build Dec 20 2021 17:02:34) complex
 executed on             LinuxGNU date 2025.09.29  12:11:04

 INCAR:
   ENCUT = 500
   ISIF = 3
   IBRION = 2
   NSW = 100
   LVTOT = .TRUE.
   LVHAR = .TRUE.

 POTCAR:   PAW_GGA Na 05Jan2001
 POTCAR:   PAW_GGA Na 05Jan2001
   VRHFIN =Na: s1p0

   TITEL  = PAW_GGA Na 05Jan2001
   POMASS =   22.990; ZVAL   =    1.000    mass and valenz
   ENMAX  =   81.389; ENMIN  =   61.042 eV
   QCUT   =   -2.446; QGAM   =    4.892    optimization parameters

   Description
     l     E      TYP  RCUT    TYP  RCUT
     0   .000     23  2.500
     0  2.000     23  2.500
     1   .000     23  2.500
     1  1.000     23  2.500
     2   .000     23  2.500

 PAW_GGA Na 05Jan2001                   :

 POSCAR: Na
  positions in cartesian coordinates
 exchange correlation table for  LEXCH =        7
   RHO(1)=    0.500       N(1)  =     2000
   RHO(2)=  100.500       N(2)  =     4000

 ion  position               nearest neighbor table
   1  0.000  0.000  0.000-   2 3.71   2 3.71   2 3.71   2 3.71   2 3.71   2 3.71   2 3.71   2 3.71

   2  0.500  0.500  0.500-   1 3.71   1 3.71   1 3.71   1 3.71   1 3.71   1 3.71   1 3.71   1 3.71

  LATTYP: Found a simple cubic cell.
 ALAT       =     4.2820000648

  Lattice vectors:

 A1 = (   4.2820000648,   0.0000000000,   0.0000000000)
 A2 = (   0.0000000000,   4.2820000648,   0.0000000000)
 A3 = (   0.0000000000,   0.0000000000,   4.2820000648)

Analysis of symmetry for initial positions (statically):
 Subroutine PRICEL returns following result:

  LATTYP: Found a body centered cubic cell.
 ALAT       =     4.2820000645

[...]

   2 primitive cells build up your supercell.

 Routine SETGRP: Setting up the symmetry group for a
 simple cubic supercell.

 Subroutine GETGRP returns: Found 48 space group operations
 (whereof 48 operations were pure point group operations)
 out of a pool of 48 trial point group operations.

The static configuration has the point symmetry O_h .

Analysis of symmetry for dynamics (positions and initial velocities):
 Subroutine PRICEL returns following result:

  LATTYP: Found a body centered cubic cell.
 ALAT       =     4.2820000645

  Lattice vectors:

 A1 = (   2.1410000320,   2.1410000320,  -2.1410000328)
 A2 = (  -2.1410000320,   2.1410000328,   2.1410000328)
 A3 = (   2.1410000320,  -2.1410000328,   2.1410000320)

   2 primitive cells build up your supercell.

 Routine SETGRP: Setting up the symmetry group for a
 simple cubic supercell.

 Subroutine GETGRP returns: Found 48 space group operations
 (whereof 48 operations were pure point group operations)
 out of a pool of 48 trial point group operations.

The dynamic configuration has the point symmetry O_h .

 Subroutine INISYM returns: Found 48 space group operations
 (whereof 48 operations are pure point group operations),
 and found     2 'primitive' translations

                                     Primitive cell

  volume of cell :      39.2564

  direct lattice vectors                    reciprocal lattice vectors
     2.141000032  2.141000032 -2.141000033     0.233535728  0.233535727 -0.000000000
    -2.141000032  2.141000033  2.141000033     0.000000000  0.233535727  0.233535727
     2.141000032 -2.141000033  2.141000032     0.233535728 -0.000000000  0.233535727

  length of vectors
     3.708320835  3.708320835  3.708320835     0.330269393  0.330269393  0.330269393

  position of ions in fractional coordinates (direct lattice)
     0.000000000  0.000000000  0.000000000

  ion indices of the primitive-cell ions
   primitive index   ion index
                 1           1

 KPOINTS: KPOINTS created by Atomic Simulation Env

Automatic generation of k-mesh.
 Grid dimensions read from file:
 generate k-points for:   13   13   13

 Generating k-lattice:

  Cartesian coordinates                     Fractional coordinates (reciprocal lattice)
     0.017964287  0.000000000  0.000000000     0.076923077  0.000000000  0.000000000
     0.000000000  0.017964287  0.000000000     0.000000000  0.076923077  0.000000000
     0.000000000  0.000000000  0.017964287     0.000000000  0.000000000  0.076923077

  Length of vectors
     0.017964287  0.017964287  0.017964287

  Shift w.r.t. Gamma in fractional coordinates (k-lattice)
     0.000000000  0.000000000  0.000000000

 Subroutine IBZKPT returns following result:

 Found     84 irreducible k-points:

 Following reciprocal coordinates:
            Coordinates               Weight
  0.000000  0.000000  0.000000      1.000000
  0.076923  0.000000  0.000000      6.000000
  0.153846  0.000000  0.000000      6.000000
  0.230769  0.000000  0.000000      6.000000
  0.307692  0.000000  0.000000      6.000000
  0.384615  0.000000  0.000000      6.000000
  0.461538  0.000000  0.000000      6.000000
  0.076923  0.076923  0.000000     12.000000
  0.153846  0.076923  0.000000     24.000000
  0.230769  0.076923  0.000000     24.000000
  0.307692  0.076923  0.000000     24.000000
  0.384615  0.076923  0.000000     24.000000
  0.461538  0.076923  0.000000     24.000000
  0.153846  0.153846  0.000000     12.000000
  0.230769  0.153846  0.000000     24.000000
  0.307692  0.153846  0.000000     24.000000
  0.384615  0.153846  0.000000     24.000000
  0.461538  0.153846  0.000000     24.000000
  0.230769  0.230769  0.000000     12.000000
  0.307692  0.230769  0.000000     24.000000
  0.384615  0.230769  0.000000     24.000000
  0.461538  0.230769  0.000000     24.000000
  0.307692  0.307692  0.000000     12.000000
  0.384615  0.307692  0.000000     24.000000
  0.461538  0.307692  0.000000     24.000000
  0.384615  0.384615  0.000000     12.000000
  0.461538  0.384615  0.000000     24.000000
  0.461538  0.461538  0.000000     12.000000
  0.076923  0.076923  0.076923      8.000000
  0.153846  0.076923  0.076923     24.000000
  0.230769  0.076923  0.076923     24.000000
  0.307692  0.076923  0.076923     24.000000
  0.384615  0.076923  0.076923     24.000000
  0.461538  0.076923  0.076923     24.000000
  0.153846  0.153846  0.076923     24.000000
  0.230769  0.153846  0.076923     48.000000
  0.307692  0.153846  0.076923     48.000000
  0.384615  0.153846  0.076923     48.000000
  0.461538  0.153846  0.076923     48.000000
  0.230769  0.230769  0.076923     24.000000
  0.307692  0.230769  0.076923     48.000000
  0.384615  0.230769  0.076923     48.000000
  0.461538  0.230769  0.076923     48.000000
  0.307692  0.307692  0.076923     24.000000
  0.384615  0.307692  0.076923     48.000000
  0.461538  0.307692  0.076923     48.000000
  0.384615  0.384615  0.076923     24.000000
  0.461538  0.384615  0.076923     48.000000
  0.461538  0.461538  0.076923     24.000000
  0.153846  0.153846  0.153846      8.000000
  0.230769  0.153846  0.153846     24.000000
  0.307692  0.153846  0.153846     24.000000
  0.384615  0.153846  0.153846     24.000000
  0.461538  0.153846  0.153846     24.000000
  0.230769  0.230769  0.153846     24.000000
  0.307692  0.230769  0.153846     48.000000
  0.384615  0.230769  0.153846     48.000000
  0.461538  0.230769  0.153846     48.000000
  0.307692  0.307692  0.153846     24.000000
  0.384615  0.307692  0.153846     48.000000
[...]
  0.384615  0.307692  0.230769     48.000000
  0.461538  0.307692  0.230769     48.000000
  0.384615  0.384615  0.230769     24.000000
  0.461538  0.384615  0.230769     48.000000
  0.461538  0.461538  0.230769     24.000000
  0.307692  0.307692  0.307692      8.000000
  0.384615  0.307692  0.307692     24.000000
  0.461538  0.307692  0.307692     24.000000
  0.384615  0.384615  0.307692     24.000000
  0.461538  0.384615  0.307692     48.000000
  0.461538  0.461538  0.307692     24.000000
  0.384615  0.384615  0.384615      8.000000
  0.461538  0.384615  0.384615     24.000000
  0.461538  0.461538  0.384615     24.000000
  0.461538  0.461538  0.461538      8.000000

 Following cartesian coordinates:
            Coordinates               Weight
  0.000000  0.000000  0.000000      1.000000
  0.017964  0.000000  0.000000      6.000000
  0.035929  0.000000  0.000000      6.000000
  0.053893  0.000000  0.000000      6.000000
  0.071857  0.000000  0.000000      6.000000
  0.089821  0.000000  0.000000      6.000000
  0.107786  0.000000  0.000000      6.000000
  0.017964  0.017964  0.000000     12.000000
  0.035929  0.017964  0.000000     24.000000
  0.053893  0.017964  0.000000     24.000000
  0.071857  0.017964  0.000000     24.000000
  0.089821  0.017964  0.000000     24.000000
  0.107786  0.017964  0.000000     24.000000
  0.035929  0.035929  0.000000     12.000000
  0.053893  0.035929  0.000000     24.000000
  0.071857  0.035929  0.000000     24.000000
  0.089821  0.035929  0.000000     24.000000
  0.107786  0.035929  0.000000     24.000000
  0.053893  0.053893  0.000000     12.000000
  0.071857  0.053893  0.000000     24.000000
  0.089821  0.053893  0.000000     24.000000
  0.107786  0.053893  0.000000     24.000000
  0.071857  0.071857  0.000000     12.000000
  0.089821  0.071857  0.000000     24.000000
  0.107786  0.071857  0.000000     24.000000
  0.089821  0.089821  0.000000     12.000000
  0.107786  0.089821  0.000000     24.000000
  0.107786  0.107786  0.000000     12.000000
  0.017964  0.017964  0.017964      8.000000
  0.035929  0.017964  0.017964     24.000000
  0.053893  0.017964  0.017964     24.000000
  0.071857  0.017964  0.017964     24.000000
  0.089821  0.017964  0.017964     24.000000
  0.107786  0.017964  0.017964     24.000000
  0.035929  0.035929  0.017964     24.000000
  0.053893  0.035929  0.017964     48.000000
  0.071857  0.035929  0.017964     48.000000
  0.089821  0.035929  0.017964     48.000000
  0.107786  0.035929  0.017964     48.000000
  0.053893  0.053893  0.017964     24.000000
  0.071857  0.053893  0.017964     48.000000
  0.089821  0.053893  0.017964     48.000000
  0.107786  0.053893  0.017964     48.000000
  0.071857  0.071857  0.017964     24.000000
  0.089821  0.071857  0.017964     48.000000
  0.107786  0.071857  0.017964     48.000000
  0.089821  0.089821  0.017964     24.000000
  0.107786  0.089821  0.017964     48.000000
  0.107786  0.107786  0.017964     24.000000
  0.035929  0.035929  0.035929      8.000000
  0.053893  0.035929  0.035929     24.000000
  0.071857  0.035929  0.035929     24.000000
  0.089821  0.035929  0.035929     24.000000
  0.107786  0.035929  0.035929     24.000000
  0.053893  0.053893  0.035929     24.000000
  0.071857  0.053893  0.035929     48.000000
  0.089821  0.053893  0.035929     48.000000
  0.107786  0.053893  0.035929     48.000000
  0.071857  0.071857  0.035929     24.000000
  0.089821  0.071857  0.035929     48.000000
[...]
  0.089821  0.071857  0.053893     48.000000
  0.107786  0.071857  0.053893     48.000000
  0.089821  0.089821  0.053893     24.000000
  0.107786  0.089821  0.053893     48.000000
  0.107786  0.107786  0.053893     24.000000
  0.071857  0.071857  0.071857      8.000000
  0.089821  0.071857  0.071857     24.000000
  0.107786  0.071857  0.071857     24.000000
  0.089821  0.089821  0.071857     24.000000
  0.107786  0.089821  0.071857     48.000000
  0.107786  0.107786  0.071857     24.000000
  0.089821  0.089821  0.089821      8.000000
[...]
 k-point   9 :   0.1538 0.0769 0.0000  plane waves:    1985
 k-point  10 :   0.2308 0.0769 0.0000  plane waves:    1989
 k-point  11 :   0.3077 0.0769 0.0000  plane waves:    1988
 k-point  12 :   0.3846 0.0769 0.0000  plane waves:    1995
 k-point  13 :   0.4615 0.0769 0.0000  plane waves:    1999
 k-point  14 :   0.1538 0.1538 0.0000  plane waves:    1995
 k-point  15 :   0.2308 0.1538 0.0000  plane waves:    1991
 k-point  16 :   0.3077 0.1538 0.0000  plane waves:    1993
 k-point  17 :   0.3846 0.1538 0.0000  plane waves:    1993
 k-point  18 :   0.4615 0.1538 0.0000  plane waves:    1991
 k-point  19 :   0.2308 0.2308 0.0000  plane waves:    1979
 k-point  20 :   0.3077 0.2308 0.0000  plane waves:    1991
 k-point  21 :   0.3846 0.2308 0.0000  plane waves:    1999
 k-point  22 :   0.4615 0.2308 0.0000  plane waves:    1997
 k-point  23 :   0.3077 0.3077 0.0000  plane waves:    2003
 k-point  24 :   0.3846 0.3077 0.0000  plane waves:    2003
 k-point  25 :   0.4615 0.3077 0.0000  plane waves:    2001
 k-point  26 :   0.3846 0.3846 0.0000  plane waves:    2005
 k-point  27 :   0.4615 0.3846 0.0000  plane waves:    1994
 k-point  28 :   0.4615 0.4615 0.0000  plane waves:    1991
 k-point  29 :   0.0769 0.0769 0.0769  plane waves:    1992
 k-point  30 :   0.1538 0.0769 0.0769  plane waves:    1992
 k-point  31 :   0.2308 0.0769 0.0769  plane waves:    1985
 k-point  32 :   0.3077 0.0769 0.0769  plane waves:    1978
 k-point  33 :   0.3846 0.0769 0.0769  plane waves:    1989
 k-point  34 :   0.4615 0.0769 0.0769  plane waves:    1995
 k-point  35 :   0.1538 0.1538 0.0769  plane waves:    1983
 k-point  36 :   0.2308 0.1538 0.0769  plane waves:    1979
 k-point  37 :   0.3077 0.1538 0.0769  plane waves:    1990
 k-point  38 :   0.3846 0.1538 0.0769  plane waves:    1993
 k-point  39 :   0.4615 0.1538 0.0769  plane waves:    2000
 k-point  40 :   0.2308 0.2308 0.0769  plane waves:    1987
 k-point  41 :   0.3077 0.2308 0.0769  plane waves:    1993
 k-point  42 :   0.3846 0.2308 0.0769  plane waves:    1991
 k-point  43 :   0.4615 0.2308 0.0769  plane waves:    1998
 k-point  44 :   0.3077 0.3077 0.0769  plane waves:    1999
 k-point  45 :   0.3846 0.3077 0.0769  plane waves:    2001
 k-point  46 :   0.4615 0.3077 0.0769  plane waves:    1997
 k-point  47 :   0.3846 0.3846 0.0769  plane waves:    1996
 k-point  48 :   0.4615 0.3846 0.0769  plane waves:    2003
 k-point  49 :   0.4615 0.4615 0.0769  plane waves:    2006
 k-point  50 :   0.1538 0.1538 0.1538  plane waves:    1974
 k-point  51 :   0.2308 0.1538 0.1538  plane waves:    1983
 k-point  52 :   0.3077 0.1538 0.1538  plane waves:    1987
 k-point  53 :   0.3846 0.1538 0.1538  plane waves:    1990
 k-point  54 :   0.4615 0.1538 0.1538  plane waves:    1980
 k-point  55 :   0.2308 0.2308 0.1538  plane waves:    1980
 k-point  56 :   0.3077 0.2308 0.1538  plane waves:    1990
 k-point  57 :   0.3846 0.2308 0.1538  plane waves:    1992
 k-point  58 :   0.4615 0.2308 0.1538  plane waves:    1999
 k-point  59 :   0.3077 0.3077 0.1538  plane waves:    1995
 k-point  60 :   0.3846 0.3077 0.1538  plane waves:    1998
[...]
 k-point  70 :   0.3846 0.3077 0.2308  plane waves:    1995
 k-point  71 :   0.4615 0.3077 0.2308  plane waves:    1992
 k-point  72 :   0.3846 0.3846 0.2308  plane waves:    2000
 k-point  73 :   0.4615 0.3846 0.2308  plane waves:    1996
 k-point  74 :   0.4615 0.4615 0.2308  plane waves:    2012
 k-point  75 :   0.3077 0.3077 0.3077  plane waves:    1980
 k-point  76 :   0.3846 0.3077 0.3077  plane waves:    1984
 k-point  77 :   0.4615 0.3077 0.3077  plane waves:    2002
 k-point  78 :   0.3846 0.3846 0.3077  plane waves:    1990
 k-point  79 :   0.4615 0.3846 0.3077  plane waves:    1987
 k-point  80 :   0.4615 0.4615 0.3077  plane waves:    1988
 k-point  81 :   0.3846 0.3846 0.3846  plane waves:    1998
 k-point  82 :   0.4615 0.3846 0.3846  plane waves:    1983
 k-point  83 :   0.4615 0.4615 0.3846  plane waves:    1970
 k-point  84 :   0.4615 0.4615 0.4615  plane waves:    1968

 maximum and minimum number of plane-waves per node :      2012     1935

 maximum number of plane-waves:      2012
 maximum index in each direction:
   IXMAX=    7   IYMAX=    7   IZMAX=    7
   IXMIN=   -8   IYMIN=   -8   IZMIN=   -8

 serial   3D FFT for wavefunctions
 parallel 3D FFT for charge:
    minimum data exchange during FFTs selected (reduces bandwidth)

 Broyden mixing: mesh for mixing (old mesh)
   NGX = 15   NGY = 15   NGZ = 15
  (NGX  = 48   NGY  = 48   NGZ  = 48)
  gives a total of   3375 points

 charge density for first step will be calculated from the start-wavefunctions

 Maximum index for augmentation-charges        14771 (set IRDMAX)

 initial charge from wavefunction
 First call to EWALD:  gamma=   0.414
 Maximum number of real-space cells 3x 3x 3
 Maximum number of reciprocal cells 3x 3x 3

--------------------------------------- Iteration      1(   1)  ---------------------------------------

 eigenvalue-minimisations  :  1035
 total energy-change (2. order) :-0.2269896E+01  (-0.2580583E-01)
 number of electron       2.0000000 magnetization
 augmentation part       -0.0234616 magnetization

 Broyden mixing:
  rms(total) = 0.10109E+00    rms(broyden)= 0.18882E-01
  rms(prec ) = 0.41728E-01
  weight for this iteration     100.00
  WARNING: grid for Broyden might be to small

 Free energy of the ion-electron system (eV)
  alpha Z        PSCENC =        -1.05627525
  Ewald energy   TEWEN  =       -12.23825003
  -Hartree energ DENC   =        -0.00948209
  -exchange      EXHF   =         0.00000000
  -V(xc)+E(xc)   XCENC  =       -20.85118712
  PAW double counting   =        21.56956172        0.01446951
  entropy T*S    EENTRO =        -0.00094561
  eigenvalues    EBANDS =        -0.08818152
  atomic energy  EATOM  =        10.39039485
  Solvation  Ediel_sol  =         0.00000000
  free energy    TOTEN  =        -2.26989553 eV

  energy without entropy =       -2.26894992  energy(sigma->0) =       -2.26958033

[...]

 Broyden mixing:
  rms(total) = 0.12979E-01    rms(broyden)= 0.12979E-01
  rms(prec ) = 0.35545E-01
  weight for this iteration     100.00

 eigenvalues of (default mixing * dielectric matrix)
  average eigenvalue GAMMA=   2.0034
  2.0034

[...]

 eigenvalue-minimisations  :  1225
 total energy-change (2. order) : 0.4672144E-02  (-0.1672809E-03)
 number of electron       2.0000000 magnetization
 augmentation part       -0.0224483 magnetization

[...]

 eigenvalues of (default mixing * dielectric matrix)
  average eigenvalue GAMMA=   1.9692
  1.1366  2.8017

[...]

 average (electrostatic) potential at core
  the test charge radii are     1.3586
  (the norm of the test charge is              1.0000)
       1 -32.0202       2 -32.0202

 E-fermi :   0.4852     XC(G=0):  -5.9046     alpha+bet : -4.8021

 Fermi energy:         0.4852253325

 k-point     1 :       0.0000    0.0000    0.0000
  band No.  band energies     occupation
      1      -2.6833      2.00000
      2       4.8897     -0.00000
      3       4.8897     -0.00000
      4       5.1761     -0.00000
      5       5.1761     -0.00000

[...]

 soft charge-density along one line, spin component           1
         0         1         2         3         4         5         6         7         8         9
 total charge-density along one line

------------------------ aborting loop because EDIFF is reached ----------------------------------------

  FORCE on cell =-STRESS in cart. coord.  units (eV):
  Direction    XX          YY          ZZ          XY          YZ          ZX
  Alpha Z    -1.05628    -1.05628    -1.05628
  Ewald      -4.07942    -4.07942    -4.07942    -0.00000    -0.00000     0.00000
  Hartree     0.00918     0.00918     0.00918    -0.00000    -0.00000    -0.00000
  E(xc)      -3.48787    -3.48787    -3.48787    -0.00000    -0.00000    -0.00000
  Local       0.64080     0.64080     0.64080     0.00000     0.00000    -0.00000
  n-local     5.29535     5.33192     5.32979    -0.00385    -0.00458    -0.00458
  augment    -0.23605    -0.23605    -0.23605     0.00000     0.00000     0.00000
  Kinetic     5.42279     1.99245     0.68301     1.85557     0.76599     0.84527
  Fock        0.00000     0.00000     0.00000     0.00000     0.00000     0.00000
  Total      -0.19119    -0.19119    -0.19119     0.00000    -0.00000    -0.00000
  in kB      -3.90157    -3.90157    -3.90157     0.00000    -0.00000    -0.00000

 VOLUME and BASIS-vectors are now :
  energy-cutoff  :      500.00
  volume of cell :       78.51
      direct lattice vectors                 reciprocal lattice vectors
     4.282000065  0.000000000  0.000000000     0.233535727  0.000000000  0.000000000
     0.000000000  4.282000065  0.000000000     0.000000000  0.233535727  0.000000000
     0.000000000  0.000000000  4.282000065     0.000000000  0.000000000  0.233535727

[...]

 FORCES acting on ions
    electron-ion (+dipol)            ewald-force                    non-local-force                 convergence-correction
   -.340E-11 -.340E-11 -.340E-11   -.307E-09 -.307E-09 -.307E-09   0.156E-24 -.504E-24 0.236E-24   0.994E-13 0.994E-13 0.994E-13
   -.752E-09 -.752E-09 -.752E-09   0.307E-09 0.307E-09 0.307E-09   0.232E-24 -.615E-24 0.141E-24   -.218E-12 -.218E-12 -.218E-12
   -.756E-09 -.756E-09 -.756E-09   0.108E-16 0.436E-17 0.174E-18   0.388E-24 -.112E-23 0.377E-24   -.118E-12 -.118E-12 -.118E-12

 POSITION                                       TOTAL-FORCE (eV/Angst)
      0.00000      0.00000      0.00000        -0.000000     -0.000000      0.000000
      2.14100      2.14100      2.14100         0.000000      0.000000     -0.000000
    total drift:                               -0.000000     -0.000000     -0.000000

  FREE ENERGIE OF THE ION-ELECTRON SYSTEM (eV)
  free  energy   TOTEN  =        -2.60391485 eV

  energy  without entropy=       -2.60300394  energy(sigma->0) =       -2.60361121

[...]

 d Force = 0.0000000E+00[ 0.000E+00, 0.000E+00]  d Energy = 0.2264863E-02-0.226E-02
 d Force = 0.0000000E+00[ 0.000E+00, 0.000E+00]  d Ewald  = 0.5670182E-01-0.567E-01

 Steepest descent step on ions:
 trial-energy change:   -0.002265  1 .order   -0.002313   -0.002645   -0.001981
  (g-gl).g = 0.265E-02      g.g   = 0.265E-02  gl.gl    = 0.000E+00
 g(Force)  = 0.114E-56   g(Stress)= 0.265E-02 ortho     = 0.000E+00
 gamma     =   0.00000
 trial     =   1.00000
 opt step  =   3.98118  (harmonic =   3.98118) maximal distance =0.00000000
 next E    =    -2.609180   (d E  =  -0.00527)

[...]

 k-point    68 :       0.4615    0.2308    0.2308
  band No.  b

[...]

 eigenvalue-minimisations  :   955
 total energy-change (2. order) :-0.2997040E-02  (-0.8035869E-03)
 number of electron       2.0000000 magnetization
 augmentation part       -0.0229101 magnetization

 Broyden mixing:
  rms(total) = 0.20612E-02    rms(broyden)= 0.20612E-02
  rms(prec ) = 0.59987E-02
  weight for this iteration     100.00

[...]

 k-point     3 :       0.1538    0.0000    0.0000

[...]

 Steepest descent step on ions:
 trial-energy change:   -0.002265  1 .order   -0.002313   -0.002645   -0.001981
  (g-gl).g = 0.265E-02      g.g   = 0.265E-02  gl.gl    = 0.000E+00
 g(Force)  = 0.169E-54   g(Stress)= 0.265E-02 ortho     = 0.000E+00
 gamma     =   0.00000
 trial     =   1.00000
 opt step  =   3.98118  (harmonic =   3.98118) maximal distance =0.00000000
 next E    =    -2.609180   (d E  =  -0.00527)

[...]

 reached required accuracy - stopping structural energy minimisation
 writing wavefunctions
 4       3.0289     -0.00000
      5       8.1561      0.00000

[...]

-12.46715184
  -Hartree energ DENC   =        -0.02888700
  -exchange      EXHF   =         0.00000000
  -V(xc)+E(xc)   XCENC  =       -19.63978844
  PAW double counting   =        21.78950939       -0.24792371
  entropy T*S    EENTRO =        -0.00087206
  eigenvalues    EBANDS =        -1.28779843
  atomic energy  EATOM  =        10.39039485
  Solvation  Ediel_sol  =         0.00000000
  free energy    TOTEN  =        -2.60917704 eV

[...]

--------------------------------------- Iteration      3(   2)  ---------------------------------------

 eigenvalue-minimisations  :   755
 total energy-change (2. order) : 0.2197249E-04  (-0.2379198E-05)
 number of electron       2.0000000 magnetization
 augmentation part       -0.0229101 magnetization

 Free energy of the ion-electron system (eV)
  alpha Z        PSCENC =        -1.11665981
  Ewald energy   TEWEN  =       -12.46715184
  -Hartree energ DENC   =        -0.02966185
  -exchange      EXHF   =         0.00000000
  -V(xc)+E(xc)   XCENC  =       -19.63764334
  PAW double counting   =        21.79897924       -0.25888184
  entropy T*S    EENTRO =        -0.00087184
  eigenvalues    EBANDS =        -1.28765864
  atomic energy  EATOM  =        10.39039485
  Solvation  Ediel_sol  =         0.00000000
  free energy    TOTEN  =        -2.60915507 eV

  energy without entropy =       -2.60828323  energy(sigma->0) =       -2.60886446

 average (electrostatic) potential at core
  the test charge radii are     1.3586
  (the norm of the test charge is              1.0000)
       1 -31.8052       2 -31.8052

 E-fermi :   0.6568     XC(G=0):  -6.0237     alpha+bet : -5.0767

 Fermi energy:         0.6568023232

[...]

       0.0585      2.00020
      3       5.0708     -0.00000
      4       5.6815     -0.00000
      5       7.2743      0.00000

[...]

 k-point    84 :       0.4615    0.4615    0.4615
  band No.  band energies     occupation
      1       2.6428     -0.00000
      2       3.0837     -0.00000
      3       3.0837     -0.00000
      4       3.6883     -0.00000
      5       3.7397     -0.00000

 soft charge-density along one line, spin component           1
         0         1         2         3         4         5         6         7         8         9
 total charge-density along one line

------------------------ aborting loop because EDIFF is reached ----------------------------------------

  FORCE on cell =-STRESS in cart. coord.  units (eV):
  Direction    XX          YY          ZZ          XY          YZ          ZX
  Alpha Z    -1.11666    -1.11666    -1.11666
  Ewald      -4.15572    -4.15572    -4.15572    -0.00000    -0.00000     0.00000
  Hartree     0.01046     0.01046     0.01046    -0.00000    -0.00000    -0.00000
  E(xc)      -3.57157    -3.57157    -3.57157     0.00000     0.00000     0.00000
  Local       0.68639     0.68639     0.68639    -0.00000    -0.00000    -0.00000
  n-local     5.55215     5.59062     5.58637    -0.00112    -0.00380    -0.00376
  augment    -0.24056    -0.24056    -0.24056     0.00000     0.00000     0.00000
  Kinetic     5.63172     2.08143     0.72288     1.92617     0.79324     0.87638
  Fock        0.00000     0.00000     0.00000     0.00000     0.00000     0.00000
  Total       0.00073     0.00073     0.00073    -0.00000    -0.00000     0.00000
  in kB       0.01581     0.01581     0.01581    -0.00000    -0.00000     0.00000

 VOLUME and BASIS-vectors are now :
  energy-cutoff  :      500.00
  volume of cell :       74.27
      direct lattice vectors                 reciprocal lattice vectors
     4.203380859 -0.000000000 -0.000000000     0.237903734  0.000000000 -0.000000000
    -0.000000000  4.203380859 -0.000000000     0.000000000  0.237903734  0.000000000
     0.000000000 -0.000000000  4.203380859     0.000000000  0.000000000  0.237903734

  length of vectors
     4.203380859  4.203380859  4.203380859     0.237903734  0.237903734  0.237903734

 FORCES acting on ions
    electron-ion (+dipol)            ewald-force                    non-local-force                 convergence-correction
   -.378E-11 -.378E-11 -.378E-11   -.319E-09 -.319E-09 -.319E-09   0.205E-25 0.183E-25 0.206E-25   0.924E-13 0.924E-13 0.924E-13
   -.789E-09 -.789E-09 -.789E-09   0.319E-09 0.319E-09 0.319E-09   -.381E-25 -.360E-25 -.421E-25   -.357E-12 -.357E-12 -.357E-12
   -.793E-09 -.793E-09 -.793E-09   -.118E-16 -.964E-17 0.894E-17   -.176E-25 -.176E-25 -.215E-25   -.264E-12 -.264E-12 -.264E-12

 POSITION                                       TOTAL-FORCE (eV/Angst)
      0.00000     -0.00000      0.00000        -0.000000     -0.000000     -0.000000
      2.10169      2.10169      2.10169         0.000000      0.000000      0.000000
    total drift:                               -0.000000     -0.000000     -0.000000

  FREE ENERGIE OF THE ION-ELECTRON SYSTEM (eV)
  free  energy   TOTEN  =        -2.60915507 eV

  energy  without entropy=       -2.60828323  energy(sigma->0) =       -2.60886446

 d Force = 0.0000000E+00[ 0.000E+00, 0.000E+00]  d Energy = 0.2975360E-02-0.298E-02
 d Force = 0.0000000E+00[ 0.000E+00, 0.000E+00]  d Ewald  = 0.1722000E+00-0.172E+00

 reached required accuracy - stopping structural energy minimisation
 writing wavefunctions