 vasp.6.2.1 16May21 (build Dec 20 2021 17:02:34) complex
 executed on             LinuxGNU date 2025.09.22  12:52:33

 INCAR:
   ENCUT = 500
   GGA = PE
   IBRION = 2
   IBRION = 1
   NSW = 100
   LVTOT = .TRUE.
   LVHAR = .TRUE.

 POTCAR:    PAW_PBE Na 08Apr2002
 POTCAR:    PAW_PBE Na 08Apr2002
   VRHFIN =Na: s1p0

   TITEL  = PAW_PBE Na 08Apr2002
   POMASS =   22.990; ZVAL   =    1.000    mass and valenz
   ENMAX  =  101.968; ENMIN  =   76.476 eV

  PAW_PBE Na 08Apr2002                  :

 POSCAR: Na
  positions in cartesian coordinates
 exchange correlation table for  LEXCH =        8
   RHO(1)=    0.500       N(1)  =     2000
   RHO(2)=  100.500       N(2)  =     4000

 ion  position               nearest neighbor table
   1  0.000  0.000  0.000-   2 3.71   2 3.71   2 3.71   2 3.71   2 3.71   2 3.71   2 3.71   2 3.71

   2  0.500  0.500  0.500-   1 3.71   1 3.71   1 3.71   1 3.71   1 3.71   1 3.71   1 3.71   1 3.71

  LATTYP: Found a simple cubic cell.
 ALAT       =     4.2820000648

  Lattice vectors:

 A1 = (   4.2820000648,   0.0000000000,   0.0000000000)
 A2 = (   0.0000000000,   4.2820000648,   0.0000000000)
 A3 = (   0.0000000000,   0.0000000000,   4.2820000648)

Analysis of symmetry for initial positions (statically):
 Subroutine PRICEL returns following result:

  LATTYP: Found a body centered cubic cell.
 ALAT       =     4.2820000645

[...]

   2 primitive cells build up your supercell.

 Routine SETGRP: Setting up the symmetry group for a
 simple cubic supercell.

 Subroutine GETGRP returns: Found 48 space group operations
 (whereof 48 operations were pure point group operations)
 out of a pool of 48 trial point group operations.

The static configuration has the point symmetry O_h .

Analysis of symmetry for dynamics (positions and initial velocities):
 Subroutine PRICEL returns following result:

  LATTYP: Found a body centered cubic cell.
 ALAT       =     4.2820000645

  Lattice vectors:

 A1 = (   2.1410000320,   2.1410000320,  -2.1410000328)
 A2 = (  -2.1410000320,   2.1410000328,   2.1410000328)
 A3 = (   2.1410000320,  -2.1410000328,   2.1410000320)

   2 primitive cells build up your supercell.

 Routine SETGRP: Setting up the symmetry group for a
 simple cubic supercell.

 Subroutine GETGRP returns: Found 48 space group operations
 (whereof 48 operations were pure point group operations)
 out of a pool of 48 trial point group operations.

The dynamic configuration has the point symmetry O_h .

 Subroutine INISYM returns: Found 48 space group operations
 (whereof 48 operations are pure point group operations),
 and found     2 'primitive' translations

                                     Primitive cell

  volume of cell :      39.2564

  direct lattice vectors                    reciprocal lattice vectors
     2.141000032  2.141000032 -2.141000033     0.233535728  0.233535727 -0.000000000
    -2.141000032  2.141000033  2.141000033     0.000000000  0.233535727  0.233535727
     2.141000032 -2.141000033  2.141000032     0.233535728 -0.000000000  0.233535727

  length of vectors
     3.708320835  3.708320835  3.708320835     0.330269393  0.330269393  0.330269393

  position of ions in fractional coordinates (direct lattice)
     0.000000000  0.000000000  0.000000000

  ion indices of the primitive-cell ions
   primitive index   ion index
                 1           1

 KPOINTS: KPOINTS created by Atomic Simulation Env

Automatic generation of k-mesh.
 Grid dimensions read from file:
 generate k-points for:   13   13   13

 Generating k-lattice:

  Cartesian coordinates                     Fractional coordinates (reciprocal lattice)
     0.017964287  0.000000000  0.000000000     0.076923077  0.000000000  0.000000000
     0.000000000  0.017964287  0.000000000     0.000000000  0.076923077  0.000000000
     0.000000000  0.000000000  0.017964287     0.000000000  0.000000000  0.076923077

  Length of vectors
     0.017964287  0.017964287  0.017964287

  Shift w.r.t. Gamma in fractional coordinates (k-lattice)
     0.000000000  0.000000000  0.000000000

 Subroutine IBZKPT returns following result:

 Found     84 irreducible k-points:

 Following reciprocal coordinates:
            Coordinates               Weight
  0.000000  0.000000  0.000000      1.000000
  0.076923  0.000000  0.000000      6.000000
  0.153846  0.000000  0.000000      6.000000
  0.230769  0.000000  0.000000      6.000000
  0.307692  0.000000  0.000000      6.000000
  0.384615  0.000000  0.000000      6.000000
  0.461538  0.000000  0.000000      6.000000
  0.076923  0.076923  0.000000     12.000000
  0.153846  0.076923  0.000000     24.000000
  0.230769  0.076923  0.000000     24.000000
  0.307692  0.076923  0.000000     24.000000
  0.384615  0.076923  0.000000     24.000000
  0.461538  0.076923  0.000000     24.000000
  0.153846  0.153846  0.000000     12.000000
  0.230769  0.153846  0.000000     24.000000
  0.307692  0.153846  0.000000     24.000000
  0.384615  0.153846  0.000000     24.000000
  0.461538  0.153846  0.000000     24.000000
  0.230769  0.230769  0.000000     12.000000
  0.307692  0.230769  0.000000     24.000000
  0.384615  0.230769  0.000000     24.000000
  0.461538  0.230769  0.000000     24.000000
  0.307692  0.307692  0.000000     12.000000
  0.384615  0.307692  0.000000     24.000000
  0.461538  0.307692  0.000000     24.000000
  0.384615  0.384615  0.000000     12.000000
  0.461538  0.384615  0.000000     24.000000
  0.461538  0.461538  0.000000     12.000000
  0.076923  0.076923  0.076923      8.000000
  0.153846  0.076923  0.076923     24.000000
  0.230769  0.076923  0.076923     24.000000
  0.307692  0.076923  0.076923     24.000000
  0.384615  0.076923  0.076923     24.000000
  0.461538  0.076923  0.076923     24.000000
  0.153846  0.153846  0.076923     24.000000
  0.230769  0.153846  0.076923     48.000000
  0.307692  0.153846  0.076923     48.000000
  0.384615  0.153846  0.076923     48.000000
  0.461538  0.153846  0.076923     48.000000
  0.230769  0.230769  0.076923     24.000000
  0.307692  0.230769  0.076923     48.000000
  0.384615  0.230769  0.076923     48.000000
  0.461538  0.230769  0.076923     48.000000
  0.307692  0.307692  0.076923     24.000000
  0.384615  0.307692  0.076923     48.000000
  0.461538  0.307692  0.076923     48.000000
  0.384615  0.384615  0.076923     24.000000
  0.461538  0.384615  0.076923     48.000000
  0.461538  0.461538  0.076923     24.000000
  0.153846  0.153846  0.153846      8.000000
  0.230769  0.153846  0.153846     24.000000
  0.307692  0.153846  0.153846     24.000000
  0.384615  0.153846  0.153846     24.000000
  0.461538  0.153846  0.153846     24.000000
  0.230769  0.230769  0.153846     24.000000
  0.307692  0.230769  0.153846     48.000000
  0.384615  0.230769  0.153846     48.000000
  0.461538  0.230769  0.153846     48.000000
  0.307692  0.307692  0.153846     24.000000
  0.384615  0.307692  0.153846     48.000000
[...]
  0.384615  0.307692  0.230769     48.000000
  0.461538  0.307692  0.230769     48.000000
  0.384615  0.384615  0.230769     24.000000
  0.461538  0.384615  0.230769     48.000000
  0.461538  0.461538  0.230769     24.000000
  0.307692  0.307692  0.307692      8.000000
  0.384615  0.307692  0.307692     24.000000
  0.461538  0.307692  0.307692     24.000000
  0.384615  0.384615  0.307692     24.000000
  0.461538  0.384615  0.307692     48.000000
  0.461538  0.461538  0.307692     24.000000
  0.384615  0.384615  0.384615      8.000000
  0.461538  0.384615  0.384615     24.000000
  0.461538  0.461538  0.384615     24.000000
  0.461538  0.461538  0.461538      8.000000

 Following cartesian coordinates:
            Coordinates               Weight
  0.000000  0.000000  0.000000      1.000000
  0.017964  0.000000  0.000000      6.000000
  0.035929  0.000000  0.000000      6.000000
  0.053893  0.000000  0.000000      6.000000
  0.071857  0.000000  0.000000      6.000000
  0.089821  0.000000  0.000000      6.000000
  0.107786  0.000000  0.000000      6.000000
  0.017964  0.017964  0.000000     12.000000
  0.035929  0.017964  0.000000     24.000000
  0.053893  0.017964  0.000000     24.000000
  0.071857  0.017964  0.000000     24.000000
  0.089821  0.017964  0.000000     24.000000
  0.107786  0.017964  0.000000     24.000000
  0.035929  0.035929  0.000000     12.000000
  0.053893  0.035929  0.000000     24.000000
  0.071857  0.035929  0.000000     24.000000
  0.089821  0.035929  0.000000     24.000000
  0.107786  0.035929  0.000000     24.000000
  0.053893  0.053893  0.000000     12.000000
  0.071857  0.053893  0.000000     24.000000
  0.089821  0.053893  0.000000     24.000000
  0.107786  0.053893  0.000000     24.000000
  0.071857  0.071857  0.000000     12.000000
  0.089821  0.071857  0.000000     24.000000
  0.107786  0.071857  0.000000     24.000000
  0.089821  0.089821  0.000000     12.000000
  0.107786  0.089821  0.000000     24.000000
  0.107786  0.107786  0.000000     12.000000
  0.017964  0.017964  0.017964      8.000000
  0.035929  0.017964  0.017964     24.000000
  0.053893  0.017964  0.017964     24.000000
  0.071857  0.017964  0.017964     24.000000
  0.089821  0.017964  0.017964     24.000000
  0.107786  0.017964  0.017964     24.000000
  0.035929  0.035929  0.017964     24.000000
  0.053893  0.035929  0.017964     48.000000
  0.071857  0.035929  0.017964     48.000000
  0.089821  0.035929  0.017964     48.000000
  0.107786  0.035929  0.017964     48.000000
  0.053893  0.053893  0.017964     24.000000
  0.071857  0.053893  0.017964     48.000000
  0.089821  0.053893  0.017964     48.000000
  0.107786  0.053893  0.017964     48.000000
  0.071857  0.071857  0.017964     24.000000
  0.089821  0.071857  0.017964     48.000000
  0.107786  0.071857  0.017964     48.000000
  0.089821  0.089821  0.017964     24.000000
  0.107786  0.089821  0.017964     48.000000
  0.107786  0.107786  0.017964     24.000000
  0.035929  0.035929  0.035929      8.000000
  0.053893  0.035929  0.035929     24.000000
  0.071857  0.035929  0.035929     24.000000
  0.089821  0.035929  0.035929     24.000000
  0.107786  0.035929  0.035929     24.000000
  0.053893  0.053893  0.035929     24.000000
  0.071857  0.053893  0.035929     48.000000
  0.089821  0.053893  0.035929     48.000000
  0.107786  0.053893  0.035929     48.000000
  0.071857  0.071857  0.035929     24.000000
  0.089821  0.071857  0.035929     48.000000
[...]
  0.089821  0.071857  0.053893     48.000000
  0.107786  0.071857  0.053893     48.000000
  0.089821  0.089821  0.053893     24.000000
  0.107786  0.089821  0.053893     48.000000
  0.107786  0.107786  0.053893     24.000000
  0.071857  0.071857  0.071857      8.000000
  0.089821  0.071857  0.071857     24.000000
  0.107786  0.071857  0.071857     24.000000
  0.089821  0.089821  0.071857     24.000000
  0.107786  0.089821  0.071857     48.000000
  0.107786  0.107786  0.071857     24.000000
  0.089821  0.089821  0.089821      8.000000
  0.107786  0.089821  0.089821     24.000000
  0.107786  0.107786  0.089821     24.000000
  0.107786  0.107786  0.107786      8.000000

 SYSTEM =  unknown system
 POSCAR =  Na

 Startparameter for this run:
   NWRITE =      2    write-flag & timer
[...]
   0.10778572  0.10778572  0.05389286       0.011
   0.07185715  0.07185715  0.07185715       0.004
   0.08982143  0.07185715  0.07185715       0.011
   0.10778572  0.07185715  0.07185715       0.011
   0.08982143  0.08982143  0.07185715       0.011
   0.10778572  0.08982143  0.07185715       0.022
   0.10778572  0.10778572  0.07185715       0.011
   0.08982143  0.08982143  0.08982143       0.004
   0.10778572  0.08982143  0.08982143       0.011
   0.10778572  0.10778572  0.08982143       0.011
   0.10778572  0.10778572  0.10778572       0.004

 k-points in reciprocal lattice and weights: KPOINTS created by Atomic Simulation Env
   0.00000000  0.00000000  0.00000000       0.000
   0.07692308  0.00000000  0.00000000       0.003
   0.15384615  0.00000000  0.00000000       0.003
   0.23076923  0.00000000  0.00000000       0.003
   0.30769231  0.00000000  0.00000000       0.003
   0.38461538  0.00000000  0.00000000       0.003
   0.46153846  0.00000000  0.00000000       0.003
   0.07692308  0.07692308  0.00000000       0.005
   0.15384615  0.07692308  0.00000000       0.011
   0.23076923  0.07692308  0.00000000       0.011
   0.30769231  0.07692308  0.00000000       0.011
   0.38461538  0.07692308  0.00000000       0.011
   0.46153846  0.07692308  0.00000000       0.011
   0.15384615  0.15384615  0.00000000       0.005
   0.23076923  0.15384615  0.00000000       0.011
   0.30769231  0.15384615  0.00000000       0.011
   0.38461538  0.15384615  0.00000000       0.011
   0.46153846  0.15384615  0.00000000       0.011
   0.23076923  0.23076923  0.00000000       0.005
   0.30769231  0.23076923  0.00000000       0.011
   0.38461538  0.23076923  0.00000000       0.011
   0.46153846  0.23076923  0.00000000       0.011
   0.30769231  0.30769231  0.00000000       0.005
   0.38461538  0.30769231  0.00000000       0.011
   0.46153846  0.30769231  0.00000000       0.011
   0.38461538  0.38461538  0.00000000       0.005
   0.46153846  0.38461538  0.00000000       0.011
   0.46153846  0.46153846  0.00000000       0.005
   0.07692308  0.07692308  0.07692308       0.004
   0.15384615  0.07692308  0.07692308       0.011
   0.23076923  0.07692308  0.07692308       0.011
   0.30769231  0.07692308  0.07692308       0.011
   0.38461538  0.07692308  0.07692308       0.011
   0.46153846  0.07692308  0.07692308       0.011
   0.15384615  0.15384615  0.07692308       0.011
   0.23076923  0.15384615  0.07692308       0.022
   0.30769231  0.15384615  0.07692308       0.022
   0.38461538  0.15384615  0.07692308       0.022
   0.46153846  0.15384615  0.07692308       0.022
   0.23076923  0.23076923  0.07692308       0.011
   0.30769231  0.23076923  0.07692308       0.022
   0.38461538  0.23076923  0.07692308       0.022
   0.46153846  0.23076923  0.07692308       0.022
   0.30769231  0.30769231  0.07692308       0.011
   0.38461538  0.30769231  0.07692308       0.022
   0.46153846  0.30769231  0.07692308       0.022
   0.38461538  0.38461538  0.07692308       0.011
   0.46153846  0.38461538  0.07692308       0.022
   0.46153846  0.46153846  0.07692308       0.011
   0.15384615  0.15384615  0.15384615       0.004
   0.23076923  0.15384615  0.15384615       0.011
   0.30769231  0.15384615  0.15384615       0.011
   0.38461538  0.15384615  0.15384615       0.011
   0.46153846  0.15384615  0.15384615       0.011
   0.23076923  0.23076923  0.15384615       0.011
   0.30769231  0.23076923  0.15384615       0.022
   0.38461538  0.23076923  0.15384615       0.022
   0.46153846  0.23076923  0.15384615       0.022
   0.30769231  0.30769231  0.15384615       0.011
   0.38461538  0.30769231  0.15384615       0.022
[...]
   0.38461538  0.30769231  0.23076923       0.022
   0.46153846  0.30769231  0.23076923       0.022
   0.38461538  0.38461538  0.23076923       0.011
   0.46153846  0.38461538  0.23076923       0.022
   0.46153846  0.46153846  0.23076923       0.011
   0.30769231  0.30769231  0.30769231       0.004
   0.38461538  0.30769231  0.30769231       0.011
   0.46153846  0.30769231  0.30769231       0.011
   0.38461538  0.38461538  0.30769231       0.011
   0.46153846  0.38461538  0.30769231       0.022
   0.46153846  0.46153846  0.30769231       0.011
   0.38461538  0.38461538  0.38461538       0.004
   0.46153846  0.38461538  0.38461538       0.011
   0.46153846  0.46153846  0.38461538       0.011
   0.46153846  0.46153846  0.46153846       0.004

 position of ions in fractional coordinates (direct lattice)
   0.00000000  0.00000000  0.00000000
   0.50000000  0.50000000  0.50000000

 position of ions in cartesian coordinates  (Angst):
   0.00000000  0.00000000  0.00000000
   2.14100003  2.14100003  2.14100003

 k-point   1 :   0.0000 0.0000 0.0000  plane waves:    1935
 k-point   2 :   0.0769 0.0000 0.0000  plane waves:    1975
 k-point   3 :   0.1538 0.0000 0.0000  plane waves:    1983
 k-point   4 :   0.2308 0.0000 0.0000  plane waves:    1980
 k-point   5 :   0.3077 0.0000 0.0000  plane waves:    1992
 k-point   6 :   0.3846 0.0000 0.0000  plane waves:    1996
 k-point   7 :   0.4615 0.0000 0.0000  plane waves:    2000
 k-point   8 :   0.0769 0.0769 0.0000  plane waves:    1987
 k-point   9 :   0.1538 0.0769 0.0000  plane waves:    1985
 k-point  10 :   0.2308 0.0769 0.0000  plane waves:    1989
 k-point  11 :   0.3077 0.0769 0.0000  plane waves:    1988
 k-point  12 :   0.3846 0.0769 0.0000  plane waves:    1995
 k-point  13 :   0.4615 0.0769 0.0000  plane waves:    1999
 k-point  14 :   0.1538 0.1538 0.0000  plane waves:    1995
 k-point  15 :   0.2308 0.1538 0.0000  plane waves:    1991
 k-point  16 :   0.3077 0.1538 0.0000  plane waves:    1993
 k-point  17 :   0.3846 0.1538 0.0000  plane waves:    1993
 k-point  18 :   0.4615 0.1538 0.0000  plane waves:    1991
 k-point  19 :   0.2308 0.2308 0.0000  plane waves:    1979
 k-point  20 :   0.3077 0.2308 0.0000  plane waves:    1991
 k-point  21 :   0.3846 0.2308 0.0000  plane waves:    1999
 k-point  22 :   0.4615 0.2308 0.0000  plane waves:    1997
 k-point  23 :   0.3077 0.3077 0.0000  plane waves:    2003
 k-point  24 :   0.3846 0.3077 0.0000  plane waves:    2003
 k-point  25 :   0.4615 0.3077 0.0000  plane waves:    2001
 k-point  26 :   0.3846 0.3846 0.0000  plane waves:    2005
 k-point  27 :   0.4615 0.3846 0.0000  plane waves:    1994
 k-point  28 :   0.4615 0.4615 0.0000  plane waves:    1991
 k-point  29 :   0.0769 0.0769 0.0769  plane waves:    1992
 k-point  30 :   0.1538 0.0769 0.0769  plane waves:    1992
 k-point  31 :   0.2308 0.0769 0.0769  plane waves:    1985
 k-point  32 :   0.3077 0.0769 0.0769  plane waves:    1978
 k-point  33 :   0.3846 0.0769 0.0769  plane waves:    1989
 k-point  34 :   0.4615 0.0769 0.0769  plane waves:    1995
 k-point  35 :   0.1538 0.1538 0.0769  plane waves:    1983
 k-point  36 :   0.2308 0.1538 0.0769  plane waves:    1979
 k-point  37 :   0.3077 0.1538 0.0769  plane waves:    1990
 k-point  38 :   0.3846 0.1538 0.0769  plane waves:    1993
 k-point  39 :   0.4615 0.1538 0.0769  plane waves:    2000
 k-point  40 :   0.2308 0.2308 0.0769  plane waves:    1987
 k-point  41 :   0.3077 0.2308 0.0769  plane waves:    1993
 k-point  42 :   0.3846 0.2308 0.0769  plane waves:    1991
 k-point  43 :   0.4615 0.2308 0.0769  plane waves:    1998
 k-point  44 :   0.3077 0.3077 0.0769  plane waves:    1999
 k-point  45 :   0.3846 0.3077 0.0769  plane waves:    2001
 k-point  46 :   0.4615 0.3077 0.0769  plane waves:    1997
 k-point  47 :   0.3846 0.3846 0.0769  plane waves:    1996
 k-point  48 :   0.4615 0.3846 0.0769  plane waves:    2003
 k-point  49 :   0.4615 0.4615 0.0769  plane waves:    2006
 k-point  50 :   0.1538 0.1538 0.1538  plane waves:    1974
 k-point  51 :   0.2308 0.1538 0.1538  plane waves:    1983
 k-point  52 :   0.3077 0.1538 0.1538  plane waves:    1987
 k-point  53 :   0.3846 0.1538 0.1538  plane waves:    1990
 k-point  54 :   0.4615 0.1538 0.1538  plane waves:    1980
 k-point  55 :   0.2308 0.2308 0.1538  plane waves:    1980
 k-point  56 :   0.3077 0.2308 0.1538  plane waves:    1990
 k-point  57 :   0.3846 0.2308 0.1538  plane waves:    1992
 k-point  58 :   0.4615 0.2308 0.1538  plane waves:    1999
 k-point  59 :   0.3077 0.3077 0.1538  plane waves:    1995
 k-point  60 :   0.3846 0.3077 0.1538  plane waves:    1998
[...]
 k-point  70 :   0.3846 0.3077 0.2308  plane waves:    1995
 k-point  71 :   0.4615 0.3077 0.2308  plane waves:    1992
 k-point  72 :   0.3846 0.3846 0.2308  plane waves:    2000
 k-point  73 :   0.4615 0.3846 0.2308  plane waves:    1996
 k-point  74 :   0.4615 0.4615 0.2308  plane waves:    2012
 k-point  75 :   0.3077 0.3077 0.3077  plane waves:    1980
 k-point  76 :   0.3846 0.3077 0.3077  plane waves:    1984
 k-point  77 :   0.4615 0.3077 0.3077  plane waves:    2002
 k-point  78 :   0.3846 0.3846 0.3077  plane waves:    1990
 k-point  79 :   0.4615 0.3846 0.3077  plane waves:    1987
 k-point  80 :   0.4615 0.4615 0.3077  plane waves:    1988
 k-point  81 :   0.3846 0.3846 0.3846  plane waves:    1998
 k-point  82 :   0.4615 0.3846 0.3846  plane waves:    1983
 k-point  83 :   0.4615 0.4615 0.3846  plane waves:    1970
 k-point  84 :   0.4615 0.4615 0.4615  plane waves:    1968

 maximum and minimum number of plane-waves per node :      2012     1935

 maximum number of plane-waves:      2012
 maximum index in each direction:
   IXMAX=    7   IYMAX=    7   IZMAX=    7
   IXMIN=   -8   IYMIN=   -8   IZMIN=   -8

 serial   3D FFT for wavefunctions
 parallel 3D FFT for charge:
    minimum data exchange during FFTs selected (reduces bandwidth)

 Broyden mixing: mesh for mixing (old mesh)
   NGX = 15   NGY = 15   NGZ = 15
  (NGX  = 48   NGY  = 48   NGZ  = 48)
  gives a total of   3375 points

 charge density for first step will be calculated from the start-wavefunctions

 Maximum index for augmentation-charges         8289 (set IRDMAX)

 initial charge from wavefunction
 First call to EWALD:  gamma=   0.414
 Maximum number of real-space cells 3x 3x 3
 Maximum number of reciprocal cells 3x 3x 3

--------------------------------------- Iteration      1(   1)  ---------------------------------------

 eigenvalue-minimisations  :  1090
 total energy-change (2. order) :-0.2270562E+01  (-0.2296476E-01)
 number of electron       2.0000000 magnetization
 augmentation part        0.0130055 magnetization

 Broyden mixing:
  rms(total) = 0.10041E+00    rms(broyden)= 0.14842E-01
  rms(prec ) = 0.40779E-01
  weight for this iteration     100.00
  WARNING: grid for Broyden might be to small

 Free energy of the ion-electron system (eV)
  alpha Z        PSCENC =        -0.93315053
  Ewald energy   TEWEN  =       -12.23825003
  -Hartree energ DENC   =        -0.00827595
  -exchange      EXHF   =         0.00000000
  -V(xc)+E(xc)   XCENC  =       -74.18993815
  PAW double counting   =        76.11055633       -1.08792080
  entropy T*S    EENTRO =        -0.00097462
  eigenvalues    EBANDS =        -0.23874698
  atomic energy  EATOM  =        10.31613858
  Solvation  Ediel_sol  =         0.00000000
  free energy    TOTEN  =        -2.27056215 eV

  energy without entropy =       -2.26958753  energy(sigma->0) =       -2.27023728

[...]

 eigenvalue-minimisations  :   990
 total energy-change (2. order) :-0.3377057E+00  (-0.8989002E-02)
 number of electron       2.0000000 magnetization
 augmentation part        0.0137425 magnetization

 Broyden mixing:
  rms(total) = 0.13545E-01    rms(broyden)= 0.13545E-01
  rms(prec ) = 0.38912E-01
  weight for this iteration     100.00

 eigenvalues of (default mixing * dielectric matrix)
  average eigenvalue GAMMA=   1.5072
  1.5072

[...]

 eigenvalue-minimisations  :  1095
 total energy-change (2. order) : 0.1638631E-02  (-0.8093527E-04)
 number of electron       2.0000000 magnetization
 augmentation part        0.0137501 magnetization

[...]

 Broyden mixing:
  rms(total) = 0.64429E-03    rms(broyden)= 0.64429E-03
  rms(prec ) = 0.95416E-03
  weight for this iteration     100.00

 eigenvalues of (default mixing * dielectric matrix)
  average eigenvalue GAMMA=   2.2131
  0.9969  2.8211  2.8211

[...]

--------------------------------------- Iteration      1(   5)  ---------------------------------------

 eigenvalue-minimisations  :   465
 total energy-change (2. order) : 0.1259296E-04  (-0.2116593E-06)
 number of electron       2.0000000 magnetization
 augmentation part        0.0137470 magnetization

 Free energy of the ion-electron system (eV)
  alpha Z        PSCENC =        -0.93315053
  Ewald energy   TEWEN  =       -12.23825003
  -Hartree energ DENC   =        -0.02645539
  -exchange      EXHF   =         0.00000000
  -V(xc)+E(xc)   XCENC  =       -73.05149291
  PAW double counting   =        78.59052526       -3.57715536
  entropy T*S    EENTRO =        -0.00090960
  eigenvalues    EBANDS =        -1.68558300
  atomic energy  EATOM  =        10.31613858
  Solvation  Ediel_sol  =         0.00000000
  free energy    TOTEN  =        -2.60633299 eV

  energy without entropy =       -2.60542339  energy(sigma->0) =       -2.60602979

 average (electrostatic) potential at core
  the test charge radii are     1.1212
  (the norm of the test charge is              1.0000)
       1 -44.1074       2 -44.1074

 E-fermi :   0.4149     XC(G=0):  -6.1212     alpha+bet : -4.6800

 Fermi energy:         0.4148551553

 k-point     1 :       0.0000    0.0000    0.0000
  band No.  band energies     occupation
      1      -2.7548      2.00000
      2       4.8308     -0.00000
      3       4.8308     -0.00000
      4       5.0979     -0.00000
      5       5.0979     -0.00000

[...]

 k-point    84 :       0.4615    0.4615    0.4615
  band No.  band energies     occupation
      1       2.3498     -0.00000
      2       2.7841     -0.00000
      3       2.7841     -0.00000
      4       3.3699     -0.00000
      5       3.3962     -0.00000

 soft charge-density along one line, spin component           1
         0         1         2         3         4         5         6         7         8         9
 total charge-density along one line

------------------------ aborting loop because EDIFF is reached ----------------------------------------

  FORCE on cell =-STRESS in cart. coord.  units (eV):
  Direction    XX          YY          ZZ          XY          YZ          ZX
  Alpha Z    -0.93315    -0.93315    -0.93315
  Ewald      -4.07942    -4.07942    -4.07942    -0.00000    -0.00000     0.00000
  Hartree     0.00886     0.00886     0.00886    -0.00000    -0.00000    -0.00000
  E(xc)      -3.68201    -3.68201    -3.68201    -0.00000     0.00000    -0.00000
  Local       0.77562     0.77562     0.77562     0.00000    -0.00000     0.00000
  n-local     4.58813     4.56071     4.53704     0.02616     0.00878     0.00965
  augment     0.16837     0.16837     0.16837    -0.00000    -0.00000     0.00000
  Kinetic     5.61149     2.27673     1.00168     1.80678     0.74506     0.82254
  Fock        0.00000     0.00000     0.00000     0.00000     0.00000     0.00000
  Total      -0.21646    -0.21646    -0.21646     0.00000     0.00000     0.00000
  in kB      -4.41717    -4.41717    -4.41717     0.00000     0.00000     0.00000

 VOLUME and BASIS-vectors are now :
  energy-cutoff  :      500.00
  volume of cell :       78.51
      direct lattice vectors                 reciprocal lattice vectors
     4.282000065  0.000000000  0.000000000     0.233535727  0.000000000  0.000000000
     0.000000000  4.282000065  0.000000000     0.000000000  0.233535727  0.000000000
     0.000000000  0.000000000  4.282000065     0.000000000  0.000000000  0.233535727

  length of vectors
     4.282000065  4.282000065  4.282000065     0.233535727  0.233535727  0.233535727

 FORCES acting on ions
    electron-ion (+dipol)            ewald-force                    non-local-force                 convergence-correction
   0.235E-11 0.235E-11 0.235E-11   -.307E-09 -.307E-09 -.307E-09   -.407E-24 0.646E-25 -.294E-24   -.551E-14 -.551E-14 -.551E-14
   -.135E-08 -.135E-08 -.135E-08   0.307E-09 0.307E-09 0.307E-09   -.214E-24 -.244E-24 -.232E-24   -.150E-13 -.150E-13 -.150E-13
   -.135E-08 -.135E-08 -.135E-08   0.108E-16 0.436E-17 0.174E-18   -.622E-24 -.179E-24 -.526E-24   -.206E-13 -.206E-13 -.206E-13

 POSITION                                       TOTAL-FORCE (eV/Angst)
      0.00000      0.00000      0.00000         0.000000      0.000000     -0.000000
      2.14100      2.14100      2.14100        -0.000000     -0.000000      0.000000
    total drift:                               -0.000000     -0.000000     -0.000000

  FREE ENERGIE OF THE ION-ELECTRON SYSTEM (eV)
  free  energy   TOTEN  =        -2.60633299 eV

  energy  without entropy=       -2.60542339  energy(sigma->0) =       -2.60602979

 reached required accuracy - stopping structural energy minimisation
 writing wavefunctions