 vasp.6.2.1 16May21 (build Dec 20 2021 17:02:34) complex
 executed on             LinuxGNU date 2025.09.29  12:09:26

 INCAR:
   ENCUT = 500
   ISIF = 3
   IBRION = 2
   NSW = 100
   LVTOT = .TRUE.
   LVHAR = .TRUE.

 POTCAR:    PAW_PBE Na 08Apr2002
 POTCAR:    PAW_PBE Na 08Apr2002
   VRHFIN =Na: s1p0

   TITEL  = PAW_PBE Na 08Apr2002
   POMASS =   22.990; ZVAL   =    1.000    mass and valenz
   ENMAX  =  101.968; ENMIN  =   76.476 eV

  PAW_PBE Na 08Apr2002                  :

 POSCAR: Na
  positions in cartesian coordinates
 exchange correlation table for  LEXCH =        8
   RHO(1)=    0.500       N(1)  =     2000
   RHO(2)=  100.500       N(2)  =     4000

 ion  position               nearest neighbor table
   1  0.000  0.000  0.000-   2 3.71   2 3.71   2 3.71   2 3.71   2 3.71   2 3.71   2 3.71   2 3.71

   2  0.500  0.500  0.500-   1 3.71   1 3.71   1 3.71   1 3.71   1 3.71   1 3.71   1 3.71   1 3.71

  LATTYP: Found a simple cubic cell.
 ALAT       =     4.2820000648

  Lattice vectors:

 A1 = (   4.2820000648,   0.0000000000,   0.0000000000)
 A2 = (   0.0000000000,   4.2820000648,   0.0000000000)
 A3 = (   0.0000000000,   0.0000000000,   4.2820000648)

Analysis of symmetry for initial positions (statically):
 Subroutine PRICEL returns following result:

  LATTYP: Found a body centered cubic cell.
 ALAT       =     4.2820000645

[...]

   2 primitive cells build up your supercell.

 Routine SETGRP: Setting up the symmetry group for a
 simple cubic supercell.

 Subroutine GETGRP returns: Found 48 space group operations
 (whereof 48 operations were pure point group operations)
 out of a pool of 48 trial point group operations.

The static configuration has the point symmetry O_h .

Analysis of symmetry for dynamics (positions and initial velocities):
 Subroutine PRICEL returns following result:

  LATTYP: Found a body centered cubic cell.
 ALAT       =     4.2820000645

  Lattice vectors:

 A1 = (   2.1410000320,   2.1410000320,  -2.1410000328)
 A2 = (  -2.1410000320,   2.1410000328,   2.1410000328)
 A3 = (   2.1410000320,  -2.1410000328,   2.1410000320)

   2 primitive cells build up your supercell.

 Routine SETGRP: Setting up the symmetry group for a
 simple cubic supercell.

 Subroutine GETGRP returns: Found 48 space group operations
 (whereof 48 operations were pure point group operations)
 out of a pool of 48 trial point group operations.

The dynamic configuration has the point symmetry O_h .

 Subroutine INISYM returns: Found 48 space group operations
 (whereof 48 operations are pure point group operations),
 and found     2 'primitive' translations

                                     Primitive cell

  volume of cell :      39.2564

  direct lattice vectors                    reciprocal lattice vectors
     2.141000032  2.141000032 -2.141000033     0.233535728  0.233535727 -0.000000000
    -2.141000032  2.141000033  2.141000033     0.000000000  0.233535727  0.233535727
     2.141000032 -2.141000033  2.141000032     0.233535728 -0.000000000  0.233535727

  length of vectors
     3.708320835  3.708320835  3.708320835     0.330269393  0.330269393  0.330269393

  position of ions in fractional coordinates (direct lattice)
     0.000000000  0.000000000  0.000000000

  ion indices of the primitive-cell ions
   primitive index   ion index
                 1           1

 KPOINTS: KPOINTS created by Atomic Simulation Env

Automatic generation of k-mesh.
 Grid dimensions read from file:
 generate k-points for:   13   13   13

 Generating k-lattice:

  Cartesian coordinates                     Fractional coordinates (reciprocal lattice)
     0.017964287  0.000000000  0.000000000     0.076923077  0.000000000  0.000000000
     0.000000000  0.017964287  0.000000000     0.000000000  0.076923077  0.000000000
     0.000000000  0.000000000  0.017964287     0.000000000  0.000000000  0.076923077

  Length of vectors
     0.017964287  0.017964287  0.017964287

  Shift w.r.t. Gamma in fractional coordinates (k-lattice)
     0.000000000  0.000000000  0.000000000

 Subroutine IBZKPT returns following result:

 Found     84 irreducible k-points:

 Following reciprocal coordinates:
            Coordinates               Weight
  0.000000  0.000000  0.000000      1.000000
  0.076923  0.000000  0.000000      6.000000
  0.153846  0.000000  0.000000      6.000000
  0.230769  0.000000  0.000000      6.000000
  0.307692  0.000000  0.000000      6.000000
  0.384615  0.000000  0.000000      6.000000
  0.461538  0.000000  0.000000      6.000000
  0.076923  0.076923  0.000000     12.000000
  0.153846  0.076923  0.000000     24.000000
  0.230769  0.076923  0.000000     24.000000
  0.307692  0.076923  0.000000     24.000000
  0.384615  0.076923  0.000000     24.000000
  0.461538  0.076923  0.000000     24.000000
  0.153846  0.153846  0.000000     12.000000
  0.230769  0.153846  0.000000     24.000000
  0.307692  0.153846  0.000000     24.000000
  0.384615  0.153846  0.000000     24.000000
  0.461538  0.153846  0.000000     24.000000
  0.230769  0.230769  0.000000     12.000000
  0.307692  0.230769  0.000000     24.000000
  0.384615  0.230769  0.000000     24.000000
  0.461538  0.230769  0.000000     24.000000
  0.307692  0.307692  0.000000     12.000000
  0.384615  0.307692  0.000000     24.000000
  0.461538  0.307692  0.000000     24.000000
  0.384615  0.384615  0.000000     12.000000
  0.461538  0.384615  0.000000     24.000000
  0.461538  0.461538  0.000000     12.000000
  0.076923  0.076923  0.076923      8.000000
  0.153846  0.076923  0.076923     24.000000
  0.230769  0.076923  0.076923     24.000000
  0.307692  0.076923  0.076923     24.000000
  0.384615  0.076923  0.076923     24.000000
  0.461538  0.076923  0.076923     24.000000
  0.153846  0.153846  0.076923     24.000000
  0.230769  0.153846  0.076923     48.000000
  0.307692  0.153846  0.076923     48.000000
  0.384615  0.153846  0.076923     48.000000
  0.461538  0.153846  0.076923     48.000000
  0.230769  0.230769  0.076923     24.000000
  0.307692  0.230769  0.076923     48.000000
  0.384615  0.230769  0.076923     48.000000
  0.461538  0.230769  0.076923     48.000000
  0.307692  0.307692  0.076923     24.000000
  0.384615  0.307692  0.076923     48.000000
  0.461538  0.307692  0.076923     48.000000
  0.384615  0.384615  0.076923     24.000000
  0.461538  0.384615  0.076923     48.000000
  0.461538  0.461538  0.076923     24.000000
  0.153846  0.153846  0.153846      8.000000
  0.230769  0.153846  0.153846     24.000000
  0.307692  0.153846  0.153846     24.000000
  0.384615  0.153846  0.153846     24.000000
  0.461538  0.153846  0.153846     24.000000
  0.230769  0.230769  0.153846     24.000000
  0.307692  0.230769  0.153846     48.000000
  0.384615  0.230769  0.153846     48.000000
  0.461538  0.230769  0.153846     48.000000
  0.307692  0.307692  0.153846     24.000000
  0.384615  0.307692  0.153846     48.000000
[...]
  0.384615  0.307692  0.230769     48.000000
  0.461538  0.307692  0.230769     48.000000
  0.384615  0.384615  0.230769     24.000000
  0.461538  0.384615  0.230769     48.000000
  0.461538  0.461538  0.230769     24.000000
  0.307692  0.307692  0.307692      8.000000
  0.384615  0.307692  0.307692     24.000000
  0.461538  0.307692  0.307692     24.000000
  0.384615  0.384615  0.307692     24.000000
  0.461538  0.384615  0.307692     48.000000
  0.461538  0.461538  0.307692     24.000000
  0.384615  0.384615  0.384615      8.000000
  0.461538  0.384615  0.384615     24.000000
  0.461538  0.461538  0.384615     24.000000
  0.461538  0.461538  0.461538      8.000000

 Following cartesian coordinates:
            Coordinates               Weight
  0.000000  0.000000  0.000000      1.000000
  0.017964  0.000000  0.000000      6.000000
  0.035929  0.000000  0.000000      6.000000
  0.053893  0.000000  0.000000      6.000000
  0.071857  0.000000  0.000000      6.000000
  0.089821  0.000000  0.000000      6.000000
  0.107786  0.000000  0.000000      6.000000
  0.017964  0.017964  0.000000     12.000000
  0.035929  0.017964  0.000000     24.000000
  0.053893  0.017964  0.000000     24.000000
  0.071857  0.017964  0.000000     24.000000
  0.089821  0.017964  0.000000     24.000000
  0.107786  0.017964  0.000000     24.000000
  0.035929  0.035929  0.000000     12.000000
  0.053893  0.035929  0.000000     24.000000
  0.071857  0.035929  0.000000     24.000000
  0.089821  0.035929  0.000000     24.000000
  0.107786  0.035929  0.000000     24.000000
  0.053893  0.053893  0.000000     12.000000
  0.071857  0.053893  0.000000     24.000000
  0.089821  0.053893  0.000000     24.000000
  0.107786  0.053893  0.000000     24.000000
  0.071857  0.071857  0.000000     12.000000
  0.089821  0.071857  0.000000     24.000000
  0.107786  0.071857  0.000000     24.000000
  0.089821  0.089821  0.000000     12.000000
  0.107786  0.089821  0.000000     24.000000
  0.107786  0.107786  0.000000     12.000000
  0.017964  0.017964  0.017964      8.000000
  0.035929  0.017964  0.017964     24.000000
  0.053893  0.017964  0.017964     24.000000
  0.071857  0.017964  0.017964     24.000000
  0.089821  0.017964  0.017964     24.000000
  0.107786  0.017964  0.017964     24.000000
  0.035929  0.035929  0.017964     24.000000
  0.053893  0.035929  0.017964     48.000000
  0.071857  0.035929  0.017964     48.000000
  0.089821  0.035929  0.017964     48.000000
  0.107786  0.035929  0.017964     48.000000
  0.053893  0.053893  0.017964     24.000000
  0.071857  0.053893  0.017964     48.000000
  0.089821  0.053893  0.017964     48.000000
  0.107786  0.053893  0.017964     48.000000
  0.071857  0.071857  0.017964     24.000000
  0.089821  0.071857  0.017964     48.000000
  0.107786  0.071857  0.017964     48.000000
  0.089821  0.089821  0.017964     24.000000
  0.107786  0.089821  0.017964     48.000000
  0.107786  0.107786  0.017964     24.000000
  0.035929  0.035929  0.035929      8.000000
  0.053893  0.035929  0.035929     24.000000
  0.071857  0.035929  0.035929     24.000000
  0.089821  0.035929  0.035929     24.000000
  0.107786  0.035929  0.035929     24.000000
  0.053893  0.053893  0.035929     24.000000
  0.071857  0.053893  0.035929     48.000000
  0.089821  0.053893  0.035929     48.000000
  0.107786  0.053893  0.035929     48.000000
  0.071857  0.071857  0.035929     24.000000
  0.089821  0.071857  0.035929     48.000000
[...]
  0.089821  0.071857  0.053893     48.000000
  0.107786  0.071857  0.053893     48.000000
  0.089821  0.089821  0.053893     24.000000
  0.107786  0.089821  0.053893     48.000000
  0.107786  0.107786  0.053893     24.000000
  0.071857  0.071857  0.071857      8.000000
  0.089821  0.071857  0.071857     24.000000
  0.107786  0.071857  0.071857     24.000000
  0.089821  0.089821  0.071857     24.000000
  0.107786  0.089821  0.071857     48.000000
  0.107786  0.107786  0.071857     24.000000
  0.089821  0.089821  0.089821      8.000000
  0.107786  0.089821  0.089821     24.000000
  0.107786  0.107786  0.089821     24.000000
  0.107786  0.107786  0.107786      8.000000

 SYSTEM =  unknown system
 POSCAR =  Na

 Startparameter for this run:
   NWRITE =      2    write-flag & timer
[...]
 k-point  10 :   0.2308 0.0769 0.0000  plane waves:    1989
 k-point  11 :   0.3077 0.0769 0.0000  plane waves:    1988
 k-point  12 :   0.3846 0.0769 0.0000  plane waves:    1995
 k-point  13 :   0.4615 0.0769 0.0000  plane waves:    1999
 k-point  14 :   0.1538 0.1538 0.0000  plane waves:    1995
 k-point  15 :   0.2308 0.1538 0.0000  plane waves:    1991
 k-point  16 :   0.3077 0.1538 0.0000  plane waves:    1993
 k-point  17 :   0.3846 0.1538 0.0000  plane waves:    1993
 k-point  18 :   0.4615 0.1538 0.0000  plane waves:    1991
 k-point  19 :   0.2308 0.2308 0.0000  plane waves:    1979
 k-point  20 :   0.3077 0.2308 0.0000  plane waves:    1991
 k-point  21 :   0.3846 0.2308 0.0000  plane waves:    1999
 k-point  22 :   0.4615 0.2308 0.0000  plane waves:    1997
 k-point  23 :   0.3077 0.3077 0.0000  plane waves:    2003
 k-point  24 :   0.3846 0.3077 0.0000  plane waves:    2003
 k-point  25 :   0.4615 0.3077 0.0000  plane waves:    2001
 k-point  26 :   0.3846 0.3846 0.0000  plane waves:    2005
 k-point  27 :   0.4615 0.3846 0.0000  plane waves:    1994
 k-point  28 :   0.4615 0.4615 0.0000  plane waves:    1991
 k-point  29 :   0.0769 0.0769 0.0769  plane waves:    1992
 k-point  30 :   0.1538 0.0769 0.0769  plane waves:    1992
 k-point  31 :   0.2308 0.0769 0.0769  plane waves:    1985
 k-point  32 :   0.3077 0.0769 0.0769  plane waves:    1978
 k-point  33 :   0.3846 0.0769 0.0769  plane waves:    1989
 k-point  34 :   0.4615 0.0769 0.0769  plane waves:    1995
 k-point  35 :   0.1538 0.1538 0.0769  plane waves:    1983
 k-point  36 :   0.2308 0.1538 0.0769  plane waves:    1979
 k-point  37 :   0.3077 0.1538 0.0769  plane waves:    1990
 k-point  38 :   0.3846 0.1538 0.0769  plane waves:    1993
 k-point  39 :   0.4615 0.1538 0.0769  plane waves:    2000
 k-point  40 :   0.2308 0.2308 0.0769  plane waves:    1987
 k-point  41 :   0.3077 0.2308 0.0769  plane waves:    1993
 k-point  42 :   0.3846 0.2308 0.0769  plane waves:    1991
 k-point  43 :   0.4615 0.2308 0.0769  plane waves:    1998
 k-point  44 :   0.3077 0.3077 0.0769  plane waves:    1999
 k-point  45 :   0.3846 0.3077 0.0769  plane waves:    2001
 k-point  46 :   0.4615 0.3077 0.0769  plane waves:    1997
 k-point  47 :   0.3846 0.3846 0.0769  plane waves:    1996
 k-point  48 :   0.4615 0.3846 0.0769  plane waves:    2003
 k-point  49 :   0.4615 0.4615 0.0769  plane waves:    2006
 k-point  50 :   0.1538 0.1538 0.1538  plane waves:    1974
 k-point  51 :   0.2308 0.1538 0.1538  plane waves:    1983
 k-point  52 :   0.3077 0.1538 0.1538  plane waves:    1987
 k-point  53 :   0.3846 0.1538 0.1538  plane waves:    1990
 k-point  54 :   0.4615 0.1538 0.1538  plane waves:    1980
 k-point  55 :   0.2308 0.2308 0.1538  plane waves:    1980
 k-point  56 :   0.3077 0.2308 0.1538  plane waves:    1990
 k-point  57 :   0.3846 0.2308 0.1538  plane waves:    1992
 k-point  58 :   0.4615 0.2308 0.1538  plane waves:    1999
 k-point  59 :   0.3077 0.3077 0.1538  plane waves:    1995
 k-point  60 :   0.3846 0.3077 0.1538  plane waves:    1998
[...]
 k-point  70 :   0.3846 0.3077 0.2308  plane waves:    1995
 k-point  71 :   0.4615 0.3077 0.2308  plane waves:    1992
 k-point  72 :   0.3846 0.3846 0.2308  plane waves:    2000
 k-point  73 :   0.4615 0.3846 0.2308  plane waves:    1996
 k-point  74 :   0.4615 0.4615 0.2308  plane waves:    2012
 k-point  75 :   0.3077 0.3077 0.3077  plane waves:    1980
 k-point  76 :   0.3846 0.3077 0.3077  plane waves:    1984
 k-point  77 :   0.4615 0.3077 0.3077  plane waves:    2002
 k-point  78 :   0.3846 0.3846 0.3077  plane waves:    1990
 k-point  79 :   0.4615 0.3846 0.3077  plane waves:    1987
 k-point  80 :   0.4615 0.4615 0.3077  plane waves:    1988
 k-point  81 :   0.3846 0.3846 0.3846  plane waves:    1998
 k-point  82 :   0.4615 0.3846 0.3846  plane waves:    1983
 k-point  83 :   0.4615 0.4615 0.3846  plane waves:    1970
 k-point  84 :   0.4615 0.4615 0.4615  plane waves:    1968

 maximum and minimum number of plane-waves per node :      2012     1935

 maximum number of plane-waves:      2012
 maximum index in each direction:
   IXMAX=    7   IYMAX=    7   IZMAX=    7
   IXMIN=   -8   IYMIN=   -8   IZMIN=   -8

 serial   3D FFT for wavefunctions
 parallel 3D FFT for charge:
    minimum data exchange during FFTs selected (reduces bandwidth)

 Broyden mixing: mesh for mixing (old mesh)
   NGX = 15   NGY = 15   NGZ = 15
  (NGX  = 48   NGY  = 48   NGZ  = 48)
  gives a total of   3375 points

 charge density for first step will be calculated from the start-wavefunctions

 Maximum index for augmentation-charges         8289 (set IRDMAX)

 initial charge from wavefunction
 First call to EWALD:  gamma=   0.414
 Maximum number of real-space cells 3x 3x 3
 Maximum number of reciprocal cells 3x 3x 3

--------------------------------------- Iteration      1(   1)  ---------------------------------------

 eigenvalue-minimisations  :  1085
 total energy-change (2. order) :-0.2276365E+01  (-0.3080060E-01)
 number of electron       2.0000000 magnetization
 augmentation part        0.0126847 magnetization

 Broyden mixing:
  rms(total) = 0.10026E+00    rms(broyden)= 0.13718E-01
  rms(prec ) = 0.36054E-01
  weight for this iteration     100.00
  WARNING: grid for Broyden might be to small

 Free energy of the ion-electron system (eV)
  alpha Z        PSCENC =        -0.93315053
  Ewald energy   TEWEN  =       -12.23825003
  -Hartree energ DENC   =        -0.00981620
  -exchange      EXHF   =         0.00000000
  -V(xc)+E(xc)   XCENC  =       -74.18036478
  PAW double counting   =        76.00150388       -0.97841282
  entropy T*S    EENTRO =        -0.00095810
  eigenvalues    EBANDS =        -0.25305538
  atomic energy  EATOM  =        10.31613858
  Solvation  Ediel_sol  =         0.00000000
  free energy    TOTEN  =        -2.27636539 eV

  energy without entropy =       -2.27540729  energy(sigma->0) =       -2.27604602

[...]

 Broyden mixing:
  rms(total) = 0.12730E-01    rms(broyden)= 0.12730E-01
  rms(prec ) = 0.34988E-01
  weight for this iteration     100.00

 eigenvalues of (default mixing * dielectric matrix)
  average eigenvalue GAMMA=   1.1323
  1.1323

[...]

 eigenvalue-minimisations  :  1075
 total energy-change (2. order) : 0.1141814E-02  (-0.7730456E-04)
 number of electron       2.0000000 magnetization
 augmentation part        0.0137638 magnetization

[...]

 eigenvalues of (default mixing * dielectric matrix)
  average eigenvalue GAMMA=   2.2723
  1.0116  2.9027  2.9027

[...]

 eigenvalue-minimisations  :   470
 total energy-change (2. order) : 0.1133501E-04  (-0.1753432E-06)
 number of electron       2.0000000 magnetization
 augmentation part        0.0137479 magnetization

[...]

 average (electrostatic) potential at core
  the test charge radii are     1.1212
  (the norm of the test charge is              1.0000)
       1 -44.1061       2 -44.1061

 E-fermi :   0.4150     XC(G=0):  -6.1212     alpha+bet : -4.6800

 Fermi energy:         0.4149595011

 k-point     1 :       0.0000    0.0000    0.0000
  band No.  band energies     occupation
      1      -2.7547      2.00000
      2       4.8308     -0.00000
      3       4.8308     -0.00000
      4       5.0981     -0.00000
      5       5.0981     -0.00000

[...]

 soft charge-density along one line, spin component           1
         0         1         2         3         4         5         6         7         8         9
 total charge-density along one line

------------------------ aborting loop because EDIFF is reached ----------------------------------------

  FORCE on cell =-STRESS in cart. coord.  units (eV):
  Direction    XX          YY          ZZ          XY          YZ          ZX
  Alpha Z    -0.93315    -0.93315    -0.93315
  Ewald      -4.07942    -4.07942    -4.07942    -0.00000    -0.00000     0.00000
  Hartree     0.00886     0.00886     0.00886    -0.00000    -0.00000    -0.00000
  E(xc)      -3.68185    -3.68185    -3.68185     0.00000    -0.00000     0.00000
  Local       0.77569     0.77569     0.77569     0.00000     0.00000     0.00000
  n-local     4.58781     4.56047     4.53682     0.02614     0.00876     0.00963
  augment     0.16835     0.16835     0.16835     0.00000    -0.00000     0.00000
  Kinetic     5.61155     2.27679     1.00173     1.80679     0.74506     0.82254
  Fock        0.00000     0.00000     0.00000     0.00000     0.00000     0.00000
  Total      -0.21646    -0.21646    -0.21646     0.00000     0.00000     0.00000
  in kB      -4.41719    -4.41719    -4.41719     0.00000     0.00000     0.00000

 VOLUME and BASIS-vectors are now :
  energy-cutoff  :      500.00
  volume of cell :       78.51
      direct lattice vectors                 reciprocal lattice vectors
     4.282000065  0.000000000  0.000000000     0.233535727  0.000000000  0.000000000
     0.000000000  4.282000065  0.000000000     0.000000000  0.233535727  0.000000000
     0.000000000  0.000000000  4.282000065     0.000000000  0.000000000  0.233535727

[...]

 FORCES acting on ions
    electron-ion (+dipol)            ewald-force                    non-local-force                 convergence-correction
   0.235E-11 0.235E-11 0.235E-11   -.307E-09 -.307E-09 -.307E-09   0.170E-24 0.145E-24 0.157E-24   -.518E-14 -.518E-14 -.519E-14
   -.135E-08 -.135E-08 -.135E-08   0.307E-09 0.307E-09 0.307E-09   -.478E-25 -.791E-24 -.625E-25   -.290E-13 -.291E-13 -.291E-13
   -.135E-08 -.135E-08 -.135E-08   0.108E-16 0.436E-17 0.174E-18   0.122E-24 -.645E-24 0.944E-25   -.342E-13 -.342E-13 -.342E-13

 POSITION                                       TOTAL-FORCE (eV/Angst)
      0.00000      0.00000      0.00000         0.000000      0.000000      0.000000
      2.14100      2.14100      2.14100        -0.000000     -0.000000     -0.000000
    total drift:                               -0.000000     -0.000000     -0.000000

  FREE ENERGIE OF THE ION-ELECTRON SYSTEM (eV)
  free  energy   TOTEN  =        -2.60633511 eV

  energy  without entropy=       -2.60542549  energy(sigma->0) =       -2.60603190

[...]

 soft charge-density along one line, spin component           1
         0         1         2         3         4         5         6         7         8         9
 total charge-density along one line

[...]

 Free energy of the ion-electron system (eV)
  alpha Z        PSCENC =        -0.94792121
  Ewald energy   TEWEN  =       -12.30248467
  -Hartree energ DENC   =        -0.02699929
  -exchange      EXHF   =         0.00000000
  -V(xc)+E(xc)   XCENC  =       -73.04481629
  PAW double counting   =        78.64157932       -3.62835201
  entropy T*S    EENTRO =        -0.00089822
  eigen

[...]

 d Force = 0.0000000E+00[ 0.000E+00, 0.000E+00]  d Energy = 0.2985262E-02-0.299E-02
 d Force = 0.0000000E+00[ 0.000E+00, 0.000E+00]  d Ewald  = 0.6423464E-01-0.642E-01

 Steepest descent step on ions:
 trial-energy change:   -0.002985  1 .order   -0.002990   -0.003391   -0.002589
  (g-gl).g = 0.339E-02      g.g   = 0.339E-02  gl.gl    = 0.000E+00
 g(Force)  = 0.149E-54   g(Stress)= 0.339E-02 ortho     = 0.000E+00
 gamma     =   0.00000
 trial     =   1.00000
 opt step  =   4.00000  (harmonic =   4.22907) maximal distance =0.00000000
 next E    =    -2.613505   (d E  =  -0.00717)

[...]

 Broyden mixing:
  rms(total) = 0.27480E-02    rms(broyden)= 0.27479E-02
  rms(prec ) = 0.76173E-02
  weight for this iteration     100.00

[...]

 eigenvalue-minimisations  :   995
 total energy-change (2. order) :-0.2072086E-04  (-0.2413497E-04)
 number of electron       2.0000000 magnetization
 augmentation part        0.0151203 magnetization

 Free energy of the ion-electron system (eV)
  alpha Z        PSCENC =        -0.99414726
  Ewald energy   TEWEN  =       -12.49929907
  -Hartree energ DENC   =        -0.02900504
  -exchange      EXHF   =         0.00000000
  -V(xc)+E(xc)   XCENC  =       -73.02318666
  PAW double counting   =        78.85100803       -3.83850010
  entropy T*S    EENTRO =        -0.00086350
  eigenvalues    EBANDS =        -1.39539608
  atomic energy  EATOM  =        10.31613858
  Solvation  Ediel_sol  =         0.00000000
  free energy    TOTEN  =        -2.61325110 eV

[...]

 average (electrostatic) potential at core
  the test charge radii are     1.1212
  (the norm of the test charge is              1.0000)
       1 -43.8497       2 -43.8497

[...]

-12.49929907
  -Hartree energ DENC   =        -0.02805915
  -exchange      EXHF   =         0.00000000
  -V(xc)+E(xc)   XCENC  =       -73.02677009
  PAW double counting   =        78.69732754       -3.68435860
  entropy T*S    EENTRO =        -0.00086344
  eigenvalues    EBANDS =        -1.39319889
  atomic energy  EATOM  =        10.31613858
  Solvation  Ediel_sol  =         0.00000000
  free energy    TOTEN  =        -2.61323038 eV

  energy without entropy =       -2.61236694  energy(sigma->0) =       -2.61294257

--------------------------------------- Iteration      3(   2)  ---------------------------------------

 eigenvalue-minimisations  :   995
 total energy-change (2. order) :-0.2072087E-04  (-0.2413497E-04)

orm of the test charge is              1.0000)
       1 -43.8497       2 -43.8497

 E-fermi :   0.6112     XC(G=0):  -6.2660     alpha+bet : -4.9860

 Fermi energy:         0.6111791336

[...]

 k-point    14 :       0.1538    0.1538    0.0

[...]

 reached required accuracy - stopping structural energy minimisation
 writing wavefunctions
.4533      0.00000
      5       8.3403      0.00000

[...]

 k-point    81 :       0.3846    0.3846    0.3846
  band No.  band energies     occupation
      1       1.0871     -0.00390

nsity along one line, spin component           1
         0         1         2         3         4         5         6         7         8         9
 total charge-density along one line

------------------------ aborting loop because EDIFF is reached ----------------------------------------

  FORCE on cell =-STRESS in cart. coord.  units (eV):
  Direction    XX          YY          ZZ          XY          YZ          ZX
  Alpha Z    -0.99415    -0.99415    -0.99415
  Ewald      -4.16643    -4.16643    -4.16643    -0.00000    -0.00000     0.00000
  Hartree     0.01037     0.01037     0.01037    -0.00000    -0.00000    -0.00000
  E(xc)      -3.78114    -3.78114    -3.78114    -0.00000    -0.00000     0.00000
  Local       0.83662     0.83662     0.83662    -0.00000    -0.00000     0.00000
  n-local     4.83240     4.80191     4.77396     0.03156     0.01055     0.01157
  augment     0.18211     0.18211     0.18211    -0.00000     0.00000    -0.00000
  Kinetic     5.85913     2.39644     1.06826     1.88334     0.77434     0.85614
  Fock        0.00000     0.00000     0.00000     0.00000     0.00000     0.00000
  Total      -0.00192    -0.00192    -0.00192    -0.00000     0.00000     0.00000
  in kB      -0.04183    -0.04183    -0.04183    -0.00000     0.00000     0.00000

 VOLUME and BASIS-vectors are now :
  energy-cutoff  :      500.00
  volume of cell :       73.70
      direct lattice vectors                 reciprocal lattice vectors
     4.192570090  0.000000000  0.000000000     0.238517181 -0.000000000  0.000000000
     0.000000000  4.192570090  0.000000000    -0.000000000  0.238517181 -0.000000000
    -0.000000000  0.000000000  4.192570090    -0.000000000 -0.000000000  0.238517181

  length of vectors
     4.192570090  4.192570090  4.192570090     0.238517181  0.238517181  0.238517181

 FORCES acting on ions
    electron-ion (+dipol)            ewald-force                    non-local-force                 convergence-correction
   0.230E-11 0.230E-11 0.230E-11   -.321E-09 -.321E-09 -.321E-09   -.442E-26 -.482E-26 -.342E-26   0.775E-13 0.775E-13 0.775E-13
   -.140E-08 -.140E-08 -.140E-08   0.321E-09 0.321E-09 0.321E-09   0.164E-26 0.123E-26 0.614E-26   -.340E-12 -.340E-12 -.340E-12
   -.140E-08 -.140E-08 -.140E-08   0.936E-17 -.135E-16 0.131E-16   -.278E-26 -.358E-26 0.272E-26   -.263E-12 -.263E-12 -.263E-12

 POSITION                                       TOTAL-FORCE (eV/Angst)
      0.00000      0.00000      0.00000        -0.000000     -0.000000     -0.000000
      2.09629      2.09629      2.09629         0.000000      0.000000      0.000000
    total drift:                               -0.000000     -0.000000     -0.000000

  FREE ENERGIE OF THE ION-ELECTRON SYSTEM (eV)
  free  energy   TOTEN  =        -2.61325110 eV

  energy  without entropy=       -2.61238760  energy(sigma->0) =       -2.61296327

 d Force = 0.0000000E+00[ 0.000E+00, 0.000E+00]  d Energy = 0.3930736E-02-0.393E-02
 d Force = 0.0000000E+00[ 0.000E+00, 0.000E+00]  d Ewald  = 0.1968144E+00-0.197E+00

 reached required accuracy - stopping structural energy minimisation
 writing wavefunctions