 vasp.6.2.1 16May21 (build Dec 20 2021 17:02:34) complex
 executed on             LinuxGNU date 2025.09.22  07:58:44

 INCAR:
   ENCUT = 500
   ISIF = 3
   IBRION = 2
   NSW = 100
   LVTOT = .TRUE.
   LVHAR = .TRUE.

 POTCAR:    PAW Na 24Mar1998
 POTCAR:    PAW Na 24Mar1998
   VRHFIN =Na: s1p0

   TITEL  = PAW Na 24Mar1998
   POMASS =   22.990; ZVAL   =    1.000    mass and valenz
   ENMAX  =  101.956; ENMIN  =   76.467 eV

  PAW Na 24Mar1998                      :

 POSCAR: Na
  positions in cartesian coordinates
 exchange correlation table for  LEXCH =        2
   RHO(1)=    0.500       N(1)  =     2000
   RHO(2)=  100.500       N(2)  =     4000

 ion  position               nearest neighbor table
   1  0.000  0.000  0.000-   2 3.71   2 3.71   2 3.71   2 3.71   2 3.71   2 3.71   2 3.71   2 3.71

   2  0.500  0.500  0.500-   1 3.71   1 3.71   1 3.71   1 3.71   1 3.71   1 3.71   1 3.71   1 3.71

  LATTYP: Found a simple cubic cell.
 ALAT       =     4.2820000648

  Lattice vectors:

 A1 = (   4.2820000648,   0.0000000000,   0.0000000000)
 A2 = (   0.0000000000,   4.2820000648,   0.0000000000)
 A3 = (   0.0000000000,   0.0000000000,   4.2820000648)

Analysis of symmetry for initial positions (statically):
 Subroutine PRICEL returns following result:

  LATTYP: Found a body centered cubic cell.
 ALAT       =     4.2820000645

[...]

   2 primitive cells build up your supercell.

 Routine SETGRP: Setting up the symmetry group for a
 simple cubic supercell.

 Subroutine GETGRP returns: Found 48 space group operations
 (whereof 48 operations were pure point group operations)
 out of a pool of 48 trial point group operations.

The static configuration has the point symmetry O_h .

Analysis of symmetry for dynamics (positions and initial velocities):
 Subroutine PRICEL returns following result:

  LATTYP: Found a body centered cubic cell.
 ALAT       =     4.2820000645

  Lattice vectors:

 A1 = (   2.1410000320,   2.1410000320,  -2.1410000328)
 A2 = (  -2.1410000320,   2.1410000328,   2.1410000328)
 A3 = (   2.1410000320,  -2.1410000328,   2.1410000320)

   2 primitive cells build up your supercell.

 Routine SETGRP: Setting up the symmetry group for a
 simple cubic supercell.

 Subroutine GETGRP returns: Found 48 space group operations
 (whereof 48 operations were pure point group operations)
 out of a pool of 48 trial point group operations.

The dynamic configuration has the point symmetry O_h .

 Subroutine INISYM returns: Found 48 space group operations
 (whereof 48 operations are pure point group operations),
 and found     2 'primitive' translations

                                     Primitive cell

  volume of cell :      39.2564

  direct lattice vectors                    reciprocal lattice vectors
     2.141000032  2.141000032 -2.141000033     0.233535728  0.233535727 -0.000000000
    -2.141000032  2.141000033  2.141000033     0.000000000  0.233535727  0.233535727
     2.141000032 -2.141000033  2.141000032     0.233535728 -0.000000000  0.233535727

  length of vectors
     3.708320835  3.708320835  3.708320835     0.330269393  0.330269393  0.330269393

  position of ions in fractional coordinates (direct lattice)
     0.000000000  0.000000000  0.000000000

  ion indices of the primitive-cell ions
   primitive index   ion index
                 1           1

 KPOINTS: KPOINTS created by Atomic Simulation Env

Automatic generation of k-mesh.
 Grid dimensions read from file:
 generate k-points for:   13   13   13

 Generating k-lattice:

  Cartesian coordinates                     Fractional coordinates (reciprocal lattice)
     0.017964287  0.000000000  0.000000000     0.076923077  0.000000000  0.000000000
     0.000000000  0.017964287  0.000000000     0.000000000  0.076923077  0.000000000
     0.000000000  0.000000000  0.017964287     0.000000000  0.000000000  0.076923077

  Length of vectors
     0.017964287  0.017964287  0.017964287

  Shift w.r.t. Gamma in fractional coordinates (k-lattice)
     0.000000000  0.000000000  0.000000000

 Subroutine IBZKPT returns following result:

 Found     84 irreducible k-points:

 Following reciprocal coordinates:
            Coordinates               Weight
  0.000000  0.000000  0.000000      1.000000
  0.076923  0.000000  0.000000      6.000000
  0.153846  0.000000  0.000000      6.000000
  0.230769  0.000000  0.000000      6.000000
  0.307692  0.000000  0.000000      6.000000
  0.384615  0.000000  0.000000      6.000000
  0.461538  0.000000  0.000000      6.000000
  0.076923  0.076923  0.000000     12.000000
  0.153846  0.076923  0.000000     24.000000
  0.230769  0.076923  0.000000     24.000000
  0.307692  0.076923  0.000000     24.000000
  0.384615  0.076923  0.000000     24.000000
  0.461538  0.076923  0.000000     24.000000
  0.153846  0.153846  0.000000     12.000000
  0.230769  0.153846  0.000000     24.000000
  0.307692  0.153846  0.000000     24.000000
  0.384615  0.153846  0.000000     24.000000
  0.461538  0.153846  0.000000     24.000000
  0.230769  0.230769  0.000000     12.000000
  0.307692  0.230769  0.000000     24.000000
  0.384615  0.230769  0.000000     24.000000
  0.461538  0.230769  0.000000     24.000000
  0.307692  0.307692  0.000000     12.000000
  0.384615  0.307692  0.000000     24.000000
  0.461538  0.307692  0.000000     24.000000
  0.384615  0.384615  0.000000     12.000000
  0.461538  0.384615  0.000000     24.000000
  0.461538  0.461538  0.000000     12.000000
  0.076923  0.076923  0.076923      8.000000
  0.153846  0.076923  0.076923     24.000000
  0.230769  0.076923  0.076923     24.000000
  0.307692  0.076923  0.076923     24.000000
  0.384615  0.076923  0.076923     24.000000
  0.461538  0.076923  0.076923     24.000000
  0.153846  0.153846  0.076923     24.000000
  0.230769  0.153846  0.076923     48.000000
  0.307692  0.153846  0.076923     48.000000
  0.384615  0.153846  0.076923     48.000000
  0.461538  0.153846  0.076923     48.000000
  0.230769  0.230769  0.076923     24.000000
  0.307692  0.230769  0.076923     48.000000
  0.384615  0.230769  0.076923     48.000000
  0.461538  0.230769  0.076923     48.000000
  0.307692  0.307692  0.076923     24.000000
  0.384615  0.307692  0.076923     48.000000
  0.461538  0.307692  0.076923     48.000000
  0.384615  0.384615  0.076923     24.000000
  0.461538  0.384615  0.076923     48.000000
  0.461538  0.461538  0.076923     24.000000
  0.153846  0.153846  0.153846      8.000000
  0.230769  0.153846  0.153846     24.000000
  0.307692  0.153846  0.153846     24.000000
  0.384615  0.153846  0.153846     24.000000
  0.461538  0.153846  0.153846     24.000000
  0.230769  0.230769  0.153846     24.000000
  0.307692  0.230769  0.153846     48.000000
  0.384615  0.230769  0.153846     48.000000
  0.461538  0.230769  0.153846     48.000000
  0.307692  0.307692  0.153846     24.000000
  0.384615  0.307692  0.153846     48.000000
[...]
  0.384615  0.307692  0.230769     48.000000
  0.461538  0.307692  0.230769     48.000000
  0.384615  0.384615  0.230769     24.000000
  0.461538  0.384615  0.230769     48.000000
  0.461538  0.461538  0.230769     24.000000
  0.307692  0.307692  0.307692      8.000000
  0.384615  0.307692  0.307692     24.000000
  0.461538  0.307692  0.307692     24.000000
  0.384615  0.384615  0.307692     24.000000
  0.461538  0.384615  0.307692     48.000000
  0.461538  0.461538  0.307692     24.000000
  0.384615  0.384615  0.384615      8.000000
  0.461538  0.384615  0.384615     24.000000
  0.461538  0.461538  0.384615     24.000000
  0.461538  0.461538  0.461538      8.000000

 Following cartesian coordinates:
            Coordinates               Weight
  0.000000  0.000000  0.000000      1.000000
  0.017964  0.000000  0.000000      6.000000
  0.035929  0.000000  0.000000      6.000000
  0.053893  0.000000  0.000000      6.000000
  0.071857  0.000000  0.000000      6.000000
  0.089821  0.000000  0.000000      6.000000
  0.107786  0.000000  0.000000      6.000000
  0.017964  0.017964  0.000000     12.000000
  0.035929  0.017964  0.000000     24.000000
  0.053893  0.017964  0.000000     24.000000
  0.071857  0.017964  0.000000     24.000000
  0.089821  0.017964  0.000000     24.000000
  0.107786  0.017964  0.000000     24.000000
  0.035929  0.035929  0.000000     12.000000
  0.053893  0.035929  0.000000     24.000000
  0.071857  0.035929  0.000000     24.000000
  0.089821  0.035929  0.000000     24.000000
  0.107786  0.035929  0.000000     24.000000
  0.053893  0.053893  0.000000     12.000000
  0.071857  0.053893  0.000000     24.000000
  0.089821  0.053893  0.000000     24.000000
  0.107786  0.053893  0.000000     24.000000
  0.071857  0.071857  0.000000     12.000000
  0.089821  0.071857  0.000000     24.000000
  0.107786  0.071857  0.000000     24.000000
  0.089821  0.089821  0.000000     12.000000
  0.107786  0.089821  0.000000     24.000000
  0.107786  0.107786  0.000000     12.000000
  0.017964  0.017964  0.017964      8.000000
  0.035929  0.017964  0.017964     24.000000
  0.053893  0.017964  0.017964     24.000000
  0.071857  0.017964  0.017964     24.000000
  0.089821  0.017964  0.017964     24.000000
  0.107786  0.017964  0.017964     24.000000
  0.035929  0.035929  0.017964     24.000000
  0.053893  0.035929  0.017964     48.000000
  0.071857  0.035929  0.017964     48.000000
  0.089821  0.035929  0.017964     48.000000
  0.107786  0.035929  0.017964     48.000000
  0.053893  0.053893  0.017964     24.000000
  0.071857  0.053893  0.017964     48.000000
  0.089821  0.053893  0.017964     48.000000
  0.107786  0.053893  0.017964     48.000000
  0.071857  0.071857  0.017964     24.000000
  0.089821  0.071857  0.017964     48.000000
  0.107786  0.071857  0.017964     48.000000
  0.089821  0.089821  0.017964     24.000000
  0.107786  0.089821  0.017964     48.000000
  0.107786  0.107786  0.017964     24.000000
  0.035929  0.035929  0.035929      8.000000
  0.053893  0.035929  0.035929     24.000000
  0.071857  0.035929  0.035929     24.000000
  0.089821  0.035929  0.035929     24.000000
  0.107786  0.035929  0.035929     24.000000
  0.053893  0.053893  0.035929     24.000000
  0.071857  0.053893  0.035929     48.000000
  0.089821  0.053893  0.035929     48.000000
  0.107786  0.053893  0.035929     48.000000
  0.071857  0.071857  0.035929     24.000000
  0.089821  0.071857  0.035929     48.000000
[...]
  0.089821  0.071857  0.053893     48.000000
  0.107786  0.071857  0.053893     48.000000
  0.089821  0.089821  0.053893     24.000000
  0.107786  0.089821  0.053893     48.000000
  0.107786  0.107786  0.053893     24.000000
  0.071857  0.071857  0.071857      8.000000
  0.089821  0.071857  0.071857     24.000000
  0.107786  0.071857  0.071857     24.000000
  0.089821  0.089821  0.071857     24.000000
  0.107786  0.089821  0.071857     48.000000
  0.107786  0.107786  0.071857     24.000000
  0.089821  0.089821  0.089821      8.000000
  0.107786  0.089821  0.089821     24.000000
  0.107786  0.107786  0.089821     24.000000
  0.107786  0.107786  0.107786      8.000000

 SYSTEM =  unknown system
 POSCAR =  Na

 Startparameter for this run:
   NWRITE =      2    write-flag & timer
[...]
 k-point  38 :   0.3846 0.1538 0.0769  plane waves:    1993
 k-point  39 :   0.4615 0.1538 0.0769  plane waves:    2000
 k-point  40 :   0.2308 0.2308 0.0769  plane waves:    1987
 k-point  41 :   0.3077 0.2308 0.0769  plane waves:    1993
 k-point  42 :   0.3846 0.2308 0.0769  plane waves:    1991
 k-point  43 :   0.4615 0.2308 0.0769  plane waves:    1998
 k-point  44 :   0.3077 0.3077 0.0769  plane waves:    1999
 k-point  45 :   0.3846 0.3077 0.0769  plane waves:    2001
 k-point  46 :   0.4615 0.3077 0.0769  plane waves:    1997
 k-point  47 :   0.3846 0.3846 0.0769  plane waves:    1996
 k-point  48 :   0.4615 0.3846 0.0769  plane waves:    2003
 k-point  49 :   0.4615 0.4615 0.0769  plane waves:    2006
 k-point  50 :   0.1538 0.1538 0.1538  plane waves:    1974
 k-point  51 :   0.2308 0.1538 0.1538  plane waves:    1983
 k-point  52 :   0.3077 0.1538 0.1538  plane waves:    1987
 k-point  53 :   0.3846 0.1538 0.1538  plane waves:    1990
 k-point  54 :   0.4615 0.1538 0.1538  plane waves:    1980
 k-point  55 :   0.2308 0.2308 0.1538  plane waves:    1980
 k-point  56 :   0.3077 0.2308 0.1538  plane waves:    1990
 k-point  57 :   0.3846 0.2308 0.1538  plane waves:    1992
 k-point  58 :   0.4615 0.2308 0.1538  plane waves:    1999
 k-point  59 :   0.3077 0.3077 0.1538  plane waves:    1995
 k-point  60 :   0.3846 0.3077 0.1538  plane waves:    1998
[...]
 k-point  70 :   0.3846 0.3077 0.2308  plane waves:    1995
 k-point  71 :   0.4615 0.3077 0.2308  plane waves:    1992
 k-point  72 :   0.3846 0.3846 0.2308  plane waves:    2000
 k-point  73 :   0.4615 0.3846 0.2308  plane waves:    1996
 k-point  74 :   0.4615 0.4615 0.2308  plane waves:    2012
 k-point  75 :   0.3077 0.3077 0.3077  plane waves:    1980
 k-point  76 :   0.3846 0.3077 0.3077  plane waves:    1984
 k-point  77 :   0.4615 0.3077 0.3077  plane waves:    2002
 k-point  78 :   0.3846 0.3846 0.3077  plane waves:    1990
 k-point  79 :   0.4615 0.3846 0.3077  plane waves:    1987
 k-point  80 :   0.4615 0.4615 0.3077  plane waves:    1988
 k-point  81 :   0.3846 0.3846 0.3846  plane waves:    1998
 k-point  82 :   0.4615 0.3846 0.3846  plane waves:    1983
 k-point  83 :   0.4615 0.4615 0.3846  plane waves:    1970
 k-point  84 :   0.4615 0.4615 0.4615  plane waves:    1968

 maximum and minimum number of plane-waves per node :      2012     1935

 maximum number of plane-waves:      2012
 maximum index in each direction:
   IXMAX=    7   IYMAX=    7   IZMAX=    7
   IXMIN=   -8   IYMIN=   -8   IZMIN=   -8

 serial   3D FFT for wavefunctions
 parallel 3D FFT for charge:
    minimum data exchange during FFTs selected (reduces bandwidth)

 Broyden mixing: mesh for mixing (old mesh)
   NGX = 15   NGY = 15   NGZ = 15
  (NGX  = 48   NGY  = 48   NGZ  = 48)
  gives a total of   3375 points

 charge density for first step will be calculated from the start-wavefunctions

 Maximum index for augmentation-charges         8289 (set IRDMAX)

 initial charge from wavefunction
 First call to EWALD:  gamma=   0.414
 Maximum number of real-space cells 3x 3x 3
 Maximum number of reciprocal cells 3x 3x 3

--------------------------------------- Iteration      1(   1)  ---------------------------------------

 eigenvalue-minimisations  :  1095
 total energy-change (2. order) :-0.2537115E+01  (-0.4584080E-01)
 number of electron       2.0000000 magnetization
 augmentation part        0.0151895 magnetization

 Broyden mixing:
  rms(total) = 0.10004E+00    rms(broyden)= 0.11944E-01
  rms(prec ) = 0.27098E-01
  weight for this iteration     100.00
  WARNING: grid for Broyden might be to small

 Free energy of the ion-electron system (eV)
  alpha Z        PSCENC =        -1.04353988
  Ewald energy   TEWEN  =       -12.23825003
  -Hartree energ DENC   =        -0.01046841
  -exchange      EXHF   =         0.00000000
  -V(xc)+E(xc)   XCENC  =       -72.55397093
  PAW double counting   =        74.17325786       -0.70846270
  entropy T*S    EENTRO =        -0.00099285
  eigenvalues    EBANDS =        -0.53646201
  atomic energy  EATOM  =        10.38177359
  Solvation  Ediel_sol  =         0.00000000
  free energy    TOTEN  =        -2.53711538 eV

  energy without entropy =       -2.53612252  energy(sigma->0) =       -2.53678442

[...]

 Broyden mixing:
  rms(total) = 0.10944E-01    rms(broyden)= 0.10944E-01
  rms(prec ) = 0.24669E-01
  weight for this iteration     100.00

 eigenvalues of (default mixing * dielectric matrix)
  average eigenvalue GAMMA=   0.9815
  0.9815

[...]

 eigenvalue-minimisations  :  1025
 total energy-change (2. order) : 0.1302527E-02  (-0.1048015E-03)
 number of electron       2.0000000 magnetization
 augmentation part        0.0167088 magnetization

[...]

 average (electrostatic) potential at core
  the test charge radii are     1.1212
  (the norm of the test charge is              1.0000)
       1 -44.6917       2 -44.6917

 E-fermi :   0.2915     XC(G=0):  -6.2966     alpha+bet : -4.6460

 Fermi energy:         0.2914805093

 k-point     1 :       0.0000    0.0000    0.0000
  band No.  band energies     occupation
      1      -2.8823      2.00000
      2       4.7704     -0.00000
      3       4.7704     -0.00000
      4       4.9070     -0.00000
      5       4.9070     -0.00000

[...]

 soft charge-density along one line, spin component           1
         0         1         2         3         4         5         6         7         8         9
 total charge-density along one line

------------------------ aborting loop because EDIFF is reached ----------------------------------------

  FORCE on cell =-STRESS in cart. coord.  units (eV):
  Direction    XX          YY          ZZ          XY          YZ          ZX
  Alpha Z    -1.04354    -1.04354    -1.04354
  Ewald      -4.07942    -4.07942    -4.07942    -0.00000    -0.00000     0.00000
  Hartree     0.00699     0.00699     0.00699    -0.00000    -0.00000    -0.00000
  E(xc)      -4.16132    -4.16132    -4.16132    -0.00000     0.00000    -0.00000
  Local       0.77278     0.77278     0.77278     0.00000     0.00000     0.00000
  n-local     4.80491     4.78118     4.76238     0.01986     0.00701     0.00747
  augment     0.20628     0.20628     0.20628     0.00000    -0.00000     0.00000
  Kinetic     5.61718     2.27991     1.00794     1.80276     0.74506     0.82158
  Fock        0.00000     0.00000     0.00000     0.00000     0.00000     0.00000
  Total      -0.54705    -0.54705    -0.54705     0.00000     0.00000     0.00000
  in kB     -11.16348   -11.16348   -11.16348     0.00000     0.00000     0.00000

 VOLUME and BASIS-vectors are now :
  energy-cutoff  :      500.00
  volume of cell :       78.51
      direct lattice vectors                 reciprocal lattice vectors
     4.282000065  0.000000000  0.000000000     0.233535727  0.000000000  0.000000000
     0.000000000  4.282000065  0.000000000     0.000000000  0.233535727  0.000000000
     0.000000000  0.000000000  4.282000065     0.000000000  0.000000000  0.233535727

[...]

 FORCES acting on ions
    electron-ion (+dipol)            ewald-force                    non-local-force                 convergence-correction
   0.302E-11 0.302E-11 0.302E-11   -.307E-09 -.307E-09 -.307E-09   0.492E-25 0.230E-24 0.198E-24   -.102E-13 -.102E-13 -.102E-13
   -.137E-08 -.137E-08 -.137E-08   0.307E-09 0.307E-09 0.307E-09   -.539E-26 0.189E-24 -.168E-25   -.160E-13 -.160E-13 -.160E-13
   -.137E-08 -.137E-08 -.137E-08   0.108E-16 0.436E-17 0.174E-18   0.438E-25 0.419E-24 0.181E-24   -.262E-13 -.262E-13 -.262E-13

 POSITION                                       TOTAL-FORCE (eV/Angst)
      0.00000      0.00000      0.00000         0.000000     -0.000000     -0.000000
      2.14100      2.14100      2.14100        -0.000000      0.000000      0.000000
    total drift:                               -0.000000     -0.000000     -0.000000

  FREE ENERGIE OF THE ION-ELECTRON SYSTEM (eV)
  free  energy   TOTEN  =        -2.86114783 eV

  energy  without entropy=       -2.86020993  energy(sigma->0) =       -2.86083520

[...]

 k-point     3 :       0.1538    0.0000    0.0000
  band No.  band energies      2       2.5185     -0.00000
      3       2.5185     -0.00000
      4       3.3479     -0.00000
      5       4.3045     -0.00000

[...]

 soft charge-density along one line, spin component           1
         0         1         2         3         4         5         6         7         8         9
 total charge-density along one line

------------------------ aborting loop because EDIFF is reached ----------------------------------------

  FORCE on cell =-STRESS in cart. coord.  units (eV):
  Direction    XX          YY          ZZ          XY          YZ          ZX
  Alpha Z    -1.08597    -1.08597    -1.08597
  Ewald      -4.13397    -4.13397    -4.13397    -0.00000    -0.00000    -0.00000
  Hartree     0.00781     0.00781     0.00781    -0.00000    -0.00000    -0.00000
  E(xc)      -4.24140    -4.24140    -4.24140    -0.00000    -0.00000     0.00000
  Local       0.81404     0.81404     0.81404    -0.00000     0.00000    -0.00000
  n-local     4.95883     4.93312     4.91169     0.02320     0.00810     0.00864
  augment     0.21650     0.21650     0.21650     0.00000    -0.00000    -0.00000
  Kinetic     5.76979     2.35236     1.04740     1.85044     0.76339     0.84254
  Fock        0.00000     0.00000     0.00000     0.00000     0.00000     0.00000
  Total      -0.43192    -0.43192    -0.43192     0.00000     0.00000    -0.00000
  in kB      -9.17236    -9.17236    -9.17236     0.00000     0.00000    -0.00000

[...]

 d Force = 0.0000000E+00[ 0.000E+00, 0.000E+00]  d Energy = 0.1946529E-01-0.195E-01
 d Force = 0.0000000E+00[ 0.000E+00, 0.000E+00]  d Ewald  = 0.1636509E+00-0.164E+00

 Steepest descent step on ions:
 trial-energy change:   -0.019465  1 .order   -0.019377   -0.021656   -0.017098
  (g-gl).g = 0.217E-01      g.g   = 0.217E-01  gl.gl    = 0.000E+00
 g(Force)  = 0.679E-54   g(Stress)= 0.217E-01 ortho     = 0.000E+00
 gamma     =   0.00000
 trial     =   1.00000
 opt step  =   4.00000  (harmonic =   4.75151) maximal distance =0.00000000
 next E    =    -2.912597   (d E  =  -0.05145)

[...]

 k-point    48 :       0.4615    0.3846    0.0769
  band No.  b

[...]

 Free energy of the ion-electron system (eV)

[...]

 eigenvalue-minimisations  :  1060
 total energy-change (2. order) :-0.1144242E-03  (-0.1686948E-03)
 number of electron       2.0000000 magnetization
 augmentation part        0.0204092 magnetization

 Broyden mixing:
  rms(total) = 0.46772E-02    rms(broyden)= 0.46772E-02
  rms(prec ) = 0.13748E-01
  weight for this iteration     100.00

 eigenvalues of (default mixing * dielectric matrix)
  average eigenvalue GAMMA=   1.8115
  1.8115

[...]

--------------------------------------- Iteration      3(   3)  ---------------------------------------

 eigenvalue-minimisations  :   650
 total energy-change (2. order) : 0.2515229E-04  (-0.5293033E-05)
 number of electron       2.0000000 magnetization
 augmentation part        0.0204092 magnetization

 Free energy of the ion-electron system (eV)
  alpha Z        PSCENC =        -1.22789139
  Ewald energy   TEWEN  =       -12.92021147
  -Hartree energ DENC   =        -0.03123911
  -exchange      EXHF   =         0.00000000
  -V(xc)+E(xc)   XCENC  =       -71.39063399
  PAW double counting   =        77.79563771       -4.34562976
  entropy T*S    EENTRO =        -0.00082132
  eigenvalues    EBANDS =        -1.16899012
  atomic energy  EATOM  =        10.38177359
  Solvation  Ediel_sol  =         0.00000000
  free energy    TOTEN  =        -2.90800586 eV

  energy without entropy =       -2.90718454  energy(sigma->0) =       -2.90773209

 average (electrostatic) potential at core
  the test charge radii are     1.1212
  (the norm of the test charge is              1.0000)
       1 -44.0183       2 -44.0183

 E-fermi :   0.8104     XC(G=0):  -6.7070     alpha+bet : -5.4667

 Fermi energy:         0.8103530998

[...]

    4       5.8009     -0.00000
      5       7.5971      0.00000

[...]

 k-point    64 :       0.4615    0.4615    0.1538
  band       5       6.2484     -0.00000

[...]

 soft charge-density along o      5       6.2484     -0.00000

[...]

 k-point    78 :       0.3846    0.3846    0.3077
  band No.  band energies     occupation
      1       0.8498      0.67338
      2       2.5969     -0.00000
      3       3.0510     -0.00000
      4       4.4764     -0.00000
      5       4.7544     -0.00000

 k-point    79 :       0.4615    0.3846    0.3077
  band No.  band energies     occupation
      1       1.4142     -0.00017
      2       2.0544     -0.00000
      3       3.4257     -0.00000
      4       4.0474      Direction    XX          YY          ZZ          XY          YZ          ZX
  Alpha Z    -1.22789    -1.22789    -1.22789
  Ewald      -4.30674    -4.30674    -4.30674    -0.00000    -0.00000    -0.00000
  Hartree     0.01065     0.01065     0.01065    -0.00000    -0.00000    -0.00000
  E(xc)      -4.48696    -4.48696    -4.48696    -0.00000    -0.00000     0.00000
  Local       0.94374     0.94374     0.94374    -0.00000    -0.00000    -0.00000
  n-local     5.49187     5.46095     5.43210     0.03311     0.01175     0.01245
  augment     0.25113     0.25113     0.25113     0.00000     0.00000     0.00000
  Kinetic     6.26994     2.59464     1.18405     2.00413     0.82262     0.91027
  Fock        0.00000     0.00000     0.00000     0.00000     0.00000     0.00000
  Total      -0.00489    -0.00489    -0.00489    -0.00000    -0.00000    -0.00000
  in kB      -0.11740    -0.11740    -0.11740    -0.00000    -0.00000    -0.00000

 VOLUME and BASIS-vectors are now :
  energy-cutoff  :      500.00
  volume of cell :       66.73
      direct lattice vectors                 reciprocal lattice vectors
     4.055985270  0.000000000  0.000000000     0.246549219 -0.000000000 -0.000000000
     0.000000000  4.055985270  0.000000000     0.000000000  0.246549219 -0.000000000
     0.000000000  0.000000000  4.055985270    -0.000000000  0.000000000  0.246549219

  length of vectors
     4.055985270  4.055985270  4.055985270     0.246549219  0.246549219  0.246549219

 FORCES acting on ions
    electron-ion (+dipol)            ewald-force                    non-local-force                 convergence-correction
   0.404E-11 0.404E-11 0.404E-11   -.343E-09 -.343E-09 -.343E-09   0.603E-26 0.568E-26 0.113E-27   0.982E-14 0.981E-14 0.980E-14
   -.153E-08 -.153E-08 -.153E-08   0.343E-09 0.343E-09 0.343E-09   0.540E-26 0.579E-26 0.113E-26   -.128E-12 -.128E-12 -.128E-12
   -.152E-08 -.152E-08 -.152E-08   0.105E-16 0.131E-17 -.429E-18   0.114E-25 0.115E-25 0.124E-26   -.118E-12 -.118E-12 -.118E-12

 POSITION                                       TOTAL-FORCE (eV/Angst)
      0.00000      0.00000      0.00000         0.000000     -0.000000      0.000000
      2.02799      2.02799   Direction    XX          YY          ZZ          XY          YZ          ZX
  Alpha Z    -1.22789    -1.22789    -1.22789
  Ewald      -4.30674    -4.30674    -4.30674    -0.00000    -0.00000    -0.00000
  Hartree     0.01065     0.01065     0.01065    -0.00000    -0.00000    -0.00000
  E(xc)      -4.48696    -4.48696    -4.48696     0.00000    -0.00000     0.00000
  Local       0.94374     0.94374     0.94374    -0.00000    -0.00000     0.00000
  n-local     5.49187     5.46095     5.43210     0.03311     0.01175     0.01245
  augment     0.25113     0.25113     0.25113     0.00000     0.00000    -0.00000
  Kinetic     6.26994     2.59464     1.18405     2.00413     0.82262     0.91027
  Fock        0.00000     0.00000     0.00000     0.00000     0.00000     0.00000
  Total      -0.00489    -0.00489    -0.00489    -0.00000    -0.00000     0.00000
  in kB      -0.11740    -0.11740    -0.11740    -0.00000    -0.00000     0.00000

 VOLUME and BASIS-vectors are now :

   -.152E-08 -.152E-08 -.152E-08   0.104E-16 -.112E-16 -.869E-17   -.142E-25 0.381E-25 0.114E-25   -.118E-12 -.118E-12 -.118E-12

 POSITION                                       TOTAL-FORCE (eV/Angst)
      0.00000     -0.00000     -0.00000        -0.000000      0.000000     -0.000000
      2.02799      2.02799      2.02799         0.000000     -0.000000      0.000000
    total drift:                               -0.000000     -0.000000     -0.000000

  FREE ENERGIE OF THE ION-ELECTRON SYSTEM (eV)
  free  energy   TOTEN  =        -2.90800586 eV

  energy  without entropy=       -2.90718454  energy(sigma->0) =       -2.90773209

 d Force = 0.0000000E+00[ 0.000E+00, 0.000E+00]  d Energy = 0.2739274E-01-0.274E-01
 d Force = 0.0000000E+00[ 0.000E+00, 0.000E+00]  d Ewald  = 0.5183105E+00-0.518E+00

 reached required accuracy - stopping structural energy minimisation
 writing wavefunctions